Ir  N  O 
 1.0000000000000000
    10.9538490905188866    0.0000000000000000    0.0000000000000000
     5.4769245452594433    9.4863115816104226    0.0000000000000000
     0.0000000000000000    0.0000000000000000   21.7078352478052139
 Ir  N   O  
  64   1   1
Selective dynamics
Cartesian
  0.0000000000000000  0.0000000000000000  7.4999999999999991   F   F   F
  2.7384622726297216  0.0000000000000000  7.4999999999999991   F   F   F
  5.4769245452594433  0.0000000000000000  7.4999999999999991   F   F   F
  8.2153868178891649  0.0000000000000000  7.4999999999999991   F   F   F
  1.3692311363148608  2.3715778954026057  7.4999999999999991   F   F   F
  4.1076934089445825  2.3715778954026057  7.4999999999999991   F   F   F
  6.8461556815743041  2.3715778954026057  7.4999999999999991   F   F   F
  9.5846179542040257  2.3715778954026057  7.4999999999999991   F   F   F
  2.7384622726297216  4.7431557908052113  7.4999999999999991   F   F   F
  5.4769245452594433  4.7431557908052113  7.4999999999999991   F   F   F
  8.2153868178891649  4.7431557908052113  7.4999999999999991   F   F   F
 10.9538490905188866  4.7431557908052113  7.4999999999999991   F   F   F
  4.1076934089445825  7.1147336862078170  7.4999999999999991   F   F   F
  6.8461556815743041  7.1147336862078170  7.4999999999999991   F   F   F
  9.5846179542040257  7.1147336862078170  7.4999999999999991   F   F   F
 12.3230802268337474  7.1147336862078170  7.4999999999999991   F   F   F
  1.3692311363148608  0.7905259651342018  9.7359450826017380   F   F   F
  4.1076934089445825  0.7905259651342018  9.7359450826017380   F   F   F
  6.8461556815743041  0.7905259651342018  9.7359450826017380   F   F   F
  9.5846179542040257  0.7905259651342018  9.7359450826017380   F   F   F
  2.7384622726297216  3.1621038605368073  9.7359450826017380   F   F   F
  5.4769245452594433  3.1621038605368073  9.7359450826017380   F   F   F
  8.2153868178891649  3.1621038605368073  9.7359450826017380   F   F   F
 10.9538490905188866  3.1621038605368073  9.7359450826017380   F   F   F
  4.1076934089445825  5.5336817559394138  9.7359450826017380   F   F   F
  6.8461556815743041  5.5336817559394138  9.7359450826017380   F   F   F
  9.5846179542040257  5.5336817559394138  9.7359450826017380   F   F   F
 12.3230802268337474  5.5336817559394138  9.7359450826017380   F   F   F
  5.4769245452594433  7.9052596513420195  9.7359450826017380   F   F   F
  8.2153868178891649  7.9052596513420195  9.7359450826017380   F   F   F
 10.9538490905188866  7.9052596513420195  9.7359450826017380   F   F   F
 13.6923113631486082  7.9052596513420195  9.7359450826017380   F   F   F
 -0.0060268899470595  1.5793162041573914 11.9378178300621780   T   T   T
  2.7444951622704794  1.5793176868675807 11.9378203668446350   T   T   T
  5.4982323333412157  1.5933541663922974 11.9819187018311837   T   T   T
  8.1940917346815265  1.5933524784208606 11.9819157045744120   T   T   T
  1.3692326442236544  3.9521871336691468 11.9419686964968861   T   T   T
  4.1127946682745788  3.9496892027213955 11.9454197112546758   T   T   T
  6.8461604148232400  3.9280386424738225 11.9819119094795248   T   T   T
  9.5795233374860409  3.9496881279958203 11.9454186088848893   T   T   T
  2.7388480802848698  6.3244316903440669 11.9419644739154407   T   T   T
  5.4814497052802800  6.3198574633398765 11.9378161579279514   T   T   T
  8.2108681203918543  6.3198576933020609 11.9378136882729695   T   T   T
 10.9534672920268576  6.3244309915135677 11.9419667109532099   T   T   T
  4.1061866909822484  8.7018835591024857 11.9378201482539037   T   T   T
  6.8461600897292882  8.6957927013948861 11.9348279800925852   T   T   T
  9.5861324295341674  8.7018824072301726 11.9378201069588972   T   T   T
 12.3230841487607670  8.7016778140438404 11.9454229268576260   T   T   T
  0.0047006822358818 -0.0026984687245893 14.1482437349980525   T   T   T
  2.7337820582258647 -0.0026971258145708 14.1482438446280838   T   T   T
  5.4645152507391179 -0.0406466854167077 14.1473029166527571   T   T   T
  8.2278156600472538 -0.0406672278168859 14.1472999046176522   T   T   T
  1.3692371726812123  2.3682252327534887 14.1466599317879425   T   T   T
  4.0662763987808992  2.3811531766756566 14.1472990343553811   T   T   T
  6.8461853193383808  2.3716041506486523 14.4780458402498784   T   T   T
  9.6260910539926510  2.3811529368074629 14.1472800458838535   T   T   T
  2.7338748103532695  4.7458099866733798 14.1534471060640552   T   T   T
  5.4479092561891926  4.7742699027788733 14.1472941173871174   T   T   T
  8.2444218738936019  4.7742912700944284 14.1472780138402552   T   T   T
 10.9584549097755879  4.7458155392078840 14.1534441074972648   T   T   T
  4.1106081314928842  7.1164230714799421 14.1466689674305659   T   T   T
  6.8461647338717091  7.1201655041100240 14.1482446000324593   T   T   T
  9.5817177688649338  7.1164217568481511 14.1466625040990461   T   T   T
 12.3230844588546784  7.1094437989142509 14.1534486774880435   T   T   T
  6.8466431864691195  2.3720656017601689 16.2528824504596372   T   T   T
  6.8472324461572249  2.3726498282003474 17.4319531868914090   T   T   T
