Pd  N  O 
 1.0000000000000000
    11.1449118996936107    0.0000000000000000    0.0000000000000000
     5.5724559498468054    9.6517768280741532    0.0000000000000000
     0.0000000000000000    0.0000000000000000   21.8248368456304220
 Pd  N   O  
  64   1   1
Selective dynamics
Cartesian
  0.0000000000000000  0.0000000000000000  7.5000000000000000   F   F   F
  2.7862279749234027  0.0000000000000000  7.5000000000000000   F   F   F
  5.5724559498468054  0.0000000000000000  7.5000000000000000   F   F   F
  8.3586839247702081  0.0000000000000000  7.5000000000000000   F   F   F
  1.3931139874617013  2.4129442070185383  7.5000000000000000   F   F   F
  4.1793419623851040  2.4129442070185383  7.5000000000000000   F   F   F
  6.9655699373085067  2.4129442070185383  7.5000000000000000   F   F   F
  9.7517979122319094  2.4129442070185383  7.5000000000000000   F   F   F
  2.7862279749234027  4.8258884140370766  7.5000000000000000   F   F   F
  5.5724559498468054  4.8258884140370766  7.5000000000000000   F   F   F
  8.3586839247702081  4.8258884140370766  7.5000000000000000   F   F   F
 11.1449118996936107  4.8258884140370766  7.5000000000000000   F   F   F
  4.1793419623851040  7.2388326210556144  7.5000000000000000   F   F   F
  6.9655699373085067  7.2388326210556144  7.5000000000000000   F   F   F
  9.7517979122319094  7.2388326210556144  7.5000000000000000   F   F   F
 12.5380258871553121  7.2388326210556144  7.5000000000000000   F   F   F
  1.3931139874617013  0.8043147356728461  9.7749456152101395   F   F   F
  4.1793419623851040  0.8043147356728461  9.7749456152101395   F   F   F
  6.9655699373085067  0.8043147356728461  9.7749456152101395   F   F   F
  9.7517979122319094  0.8043147356728461  9.7749456152101395   F   F   F
  2.7862279749234027  3.2172589426913842  9.7749456152101395   F   F   F
  5.5724559498468054  3.2172589426913842  9.7749456152101395   F   F   F
  8.3586839247702081  3.2172589426913842  9.7749456152101395   F   F   F
 11.1449118996936107  3.2172589426913842  9.7749456152101395   F   F   F
  4.1793419623851040  5.6302031497099234  9.7749456152101395   F   F   F
  6.9655699373085067  5.6302031497099234  9.7749456152101395   F   F   F
  9.7517979122319094  5.6302031497099234  9.7749456152101395   F   F   F
 12.5380258871553121  5.6302031497099234  9.7749456152101395   F   F   F
  5.5724559498468054  8.0431473567284613  9.7749456152101395   F   F   F
  8.3586839247702081  8.0431473567284613  9.7749456152101395   F   F   F
 11.1449118996936107  8.0431473567284613  9.7749456152101395   F   F   F
 13.9311398746170134  8.0431473567284613  9.7749456152101395   F   F   F
 -0.0217739777440558  1.6208067004589659 12.1123300050404943   T   T   T
  2.7861580287697554  1.6104970839907959 12.0725373568467749   T   T   T
  5.5942857014197385  1.6211586103469291 12.1122438497834022   T   T   T
  8.3588051707647324  1.6131078357801751 12.1031104825066560   T   T   T
  1.3924467274924326  4.0208096287158259 12.0669372384235345   T   T   T
  4.1802300019852261  4.0210529564009834 12.0671350338921428   T   T   T
  6.9695632927000375  4.0194323502577669 12.1030528581319210   T   T   T
  9.7476790574877867  4.0192193429802394 12.1028179378457956   T   T   T
  2.7865317885260792  6.4347726653243598 12.0693336271565457   T   T   T
  5.5734781501140356  6.4345457630951115 12.0674995345908052   T   T   T
  8.3584072279680068  6.4096367409775530 12.1123358413067592   T   T   T
 11.1438971893501400  6.4344196821981825 12.0669946555555860   T   T   T
  4.1798028606038740  8.8483635221144450 12.0675361853927630   T   T   T
  6.9635651567092181  8.8463019191813821 12.0728926542908006   T   T   T
  9.7534473727492692  8.8464255068577256 12.0725930786107476   T   T   T
 12.5379983411191898  8.8484877302802261 12.0672288213845569   T   T   T
  0.0020284663876829 -0.0027991024425191 14.3970644163630244   T   T   T
  2.7862029457277955 -0.0000139618164523 14.3930373491679617   T   T   T
  5.5705176482283942 -0.0025856774313673 14.3973108658164914   T   T   T
  8.3588013130508205 -0.0502708747228271 14.3885586469971454   T   T   T
  1.3965076405620698  2.4124320289602212 14.3972172175197759   T   T   T
  4.1761350853307624  2.4125324219119659 14.3973338349229145   T   T   T
  6.9336135035066713  2.3944958741603721 14.5315843018256921   T   T   T
  9.7839431208875567  2.3943588168748384 14.5311516902122513   T   T   T
  2.7864120928338161  4.8216900646738905 14.3896656863307140   T   T   T
  5.5289798082190860  4.8511652064251347 14.3885498061153196   T   T   T
  8.3586580681723426  4.8630997580410735 14.5310132314761873   T   T   T
 11.1884521183233545  4.8510655781648717 14.3885574296804322   T   T   T
  4.1831721228383314  7.2410987034996959 14.3895106861120006   T   T   T
  6.9641508531701923  7.2420573971590141 14.3970322225959553   T   T   T
  9.7530812864752736  7.2420844994551894 14.3971624921648065   T   T   T
 12.5344614470166107  7.2411581146062556 14.3896417787240569   T   T   T
  8.3589692561027089  3.2175572610994871 15.7340362374374987   T   T   T
  8.3591853052175225  3.2177723721835756 16.9511795143389605   T   T   T
