Cu  N  O 
 1.0000000000000000
    10.2829783810003317    0.0000000000000000    0.0000000000000000
     5.1414891905001658    8.9053205045124635    0.0000000000000000
     0.0000000000000000    0.0000000000000000   21.2970125173803737
 Cu  N   O  
  64   1   1
Selective dynamics
Cartesian
  0.0000000000000000  0.0000000000000000  7.5000000000000009   F   F   F
  2.5707445952500829  0.0000000000000000  7.5000000000000009   F   F   F
  5.1414891905001658  0.0000000000000000  7.5000000000000009   F   F   F
  7.7122337857502483  0.0000000000000000  7.5000000000000009   F   F   F
  1.2853722976250415  2.2263301261281159  7.5000000000000009   F   F   F
  3.8561168928751242  2.2263301261281159  7.5000000000000009   F   F   F
  6.4268614881252075  2.2263301261281159  7.5000000000000009   F   F   F
  8.9976060833752900  2.2263301261281159  7.5000000000000009   F   F   F
  2.5707445952500829  4.4526602522562317  7.5000000000000009   F   F   F
  5.1414891905001658  4.4526602522562317  7.5000000000000009   F   F   F
  7.7122337857502483  4.4526602522562317  7.5000000000000009   F   F   F
 10.2829783810003317  4.4526602522562317  7.5000000000000009   F   F   F
  3.8561168928751242  6.6789903783843476  7.5000000000000009   F   F   F
  6.4268614881252075  6.6789903783843476  7.5000000000000009   F   F   F
  8.9976060833752900  6.6789903783843476  7.5000000000000009   F   F   F
 11.5683506786253734  6.6789903783843476  7.5000000000000009   F   F   F
  1.2853722976250415  0.7421100420427053  9.5990041724601252   F   F   F
  3.8561168928751242  0.7421100420427053  9.5990041724601252   F   F   F
  6.4268614881252075  0.7421100420427053  9.5990041724601252   F   F   F
  8.9976060833752900  0.7421100420427053  9.5990041724601252   F   F   F
  2.5707445952500829  2.9684401681708210  9.5990041724601252   F   F   F
  5.1414891905001658  2.9684401681708210  9.5990041724601252   F   F   F
  7.7122337857502492  2.9684401681708210  9.5990041724601252   F   F   F
 10.2829783810003317  2.9684401681708210  9.5990041724601252   F   F   F
  3.8561168928751246  5.1947702942989373  9.5990041724601252   F   F   F
  6.4268614881252075  5.1947702942989373  9.5990041724601252   F   F   F
  8.9976060833752900  5.1947702942989373  9.5990041724601252   F   F   F
 11.5683506786253734  5.1947702942989373  9.5990041724601252   F   F   F
  5.1414891905001658  7.4211004204270532  9.5990041724601252   F   F   F
  7.7122337857502483  7.4211004204270532  9.5990041724601252   F   F   F
 10.2829783810003317  7.4211004204270532  9.5990041724601252   F   F   F
 12.8537229762504150  7.4211004204270532  9.5990041724601252   F   F   F
 -0.0183156880222692  1.4947521802508290 11.7372224202743602   T   T   T
  2.5707721143165831  1.4825226385324020 11.6993952195280055   T   T   T
  5.1598622222158239  1.4948315360464313 11.7372583990424086   T   T   T
  7.7122236036897682  1.4976579317858418 11.7359605911756724   T   T   T
  1.2830632949588787  3.7078750091689554 11.7024887955836281   T   T   T
  3.8584221242308816  3.7078932957051598 11.7024911419955071   T   T   T
  6.4384892703920134  3.7038229290831404 11.7359472603837087   T   T   T
  8.9859843079734567  3.7038390039228615 11.7358926196512705   T   T   T
  2.5707382906873741  5.9368744801081386 11.7179787560801465   T   T   T
  5.1449474377293303  5.9362071066736357 11.7025450432170661   T   T   T
  7.7121940198889609  5.9157795888987046 11.7371929552139935   T   T   T
 10.2795042759526893  5.9362210911734010 11.7024869739687603   T   T   T
  3.8572645215383159  8.1665427388656759 11.7025473233905757   T   T   T
  6.4283154142614931  8.1640614606788287 11.6994303194605198   T   T   T
  8.9961508189528789  8.1640917453867718 11.6993823799146544   T   T   T
 11.5672150601515433  8.1665366629658891 11.7024827614653137   T   T   T
  0.0084786625461853 -0.0101637776340951 13.8160446724664130   T   T   T
  2.5707857396913032  0.0000370223274819 13.8119923626780086   T   T   T
  5.1331252015297526 -0.0100366698783403 13.8158252984786412   T   T   T
  7.7122558033724209 -0.0283399270871799 13.8020491304100741   T   T   T
  1.2984562528121439  2.2240853516815018 13.8158261405184639   T   T   T
  3.8432262801070496  2.2241059042473017 13.8158669048700293   T   T   T
  6.3865787073268496  2.2030884558139796 13.9272341602628273   T   T   T
  9.0381404719018406  2.2030041930051860 13.9268790986944264   T   T   T
  2.5707594203442450  4.4538533060603571 13.8149227275725774   T   T   T
  5.1169450363268396  4.4668633329400924 13.8020377790395177   T   T   T
  7.7122850393917375  4.4995194542789516 13.9267667698721223   T   T   T
 10.3075896171313630  4.4668773870183447 13.8020074696295243   T   T   T
  3.8550556190152645  6.6783845552611689 13.8149385679730514   T   T   T
  6.4222682660891612  6.6914784213539464 13.8160334316163418   T   T   T
  9.0022107737837924  6.6914919081862205 13.8158054255895504   T   T   T
 11.5693925251806231  6.6784122362428642 13.8149147796410539   T   T   T
  7.7126973071468150  2.9688931299053172 15.2522857975990220   T   T   T
  7.7130292372421794  2.9692089605755672 16.4790511540701807   T   T   T
