Au  N  O 
 1.0000000000000000
    11.7602134546722201    0.0000000000000000    0.0000000000000000
     5.8801067273361101   10.1846436056736955    0.0000000000000000
     0.0000000000000000    0.0000000000000000   22.2016305575400814
 Au  N   O  
  64   1   1
Selective dynamics
Cartesian
  0.0000000000000000  0.0000000000000000  7.5000000000000000   F   F   F
  2.9400533636680550  0.0000000000000000  7.5000000000000000   F   F   F
  5.8801067273361101  0.0000000000000000  7.5000000000000000   F   F   F
  8.8201600910041655  0.0000000000000000  7.5000000000000000   F   F   F
  1.4700266818340275  2.5461609014184239  7.5000000000000000   F   F   F
  4.4100800455020828  2.5461609014184239  7.5000000000000000   F   F   F
  7.3501334091701374  2.5461609014184239  7.5000000000000000   F   F   F
 10.2901867728381937  2.5461609014184239  7.5000000000000000   F   F   F
  2.9400533636680550  5.0923218028368478  7.5000000000000000   F   F   F
  5.8801067273361101  5.0923218028368478  7.5000000000000000   F   F   F
  8.8201600910041655  5.0923218028368478  7.5000000000000000   F   F   F
 11.7602134546722201  5.0923218028368478  7.5000000000000000   F   F   F
  4.4100800455020828  7.6384827042552716  7.5000000000000000   F   F   F
  7.3501334091701374  7.6384827042552716  7.5000000000000000   F   F   F
 10.2901867728381937  7.6384827042552716  7.5000000000000000   F   F   F
 13.2302401365062483  7.6384827042552716  7.5000000000000000   F   F   F
  1.4700266818340275  0.8487203004728079  9.9005435191800277   F   F   F
  4.4100800455020828  0.8487203004728079  9.9005435191800277   F   F   F
  7.3501334091701382  0.8487203004728079  9.9005435191800277   F   F   F
 10.2901867728381937  0.8487203004728079  9.9005435191800277   F   F   F
  2.9400533636680550  3.3948812018912315  9.9005435191800277   F   F   F
  5.8801067273361101  3.3948812018912315  9.9005435191800277   F   F   F
  8.8201600910041655  3.3948812018912315  9.9005435191800277   F   F   F
 11.7602134546722219  3.3948812018912315  9.9005435191800277   F   F   F
  4.4100800455020828  5.9410421033096563  9.9005435191800277   F   F   F
  7.3501334091701374  5.9410421033096563  9.9005435191800277   F   F   F
 10.2901867728381937  5.9410421033096563  9.9005435191800277   F   F   F
 13.2302401365062483  5.9410421033096563  9.9005435191800277   F   F   F
  5.8801067273361109  8.4872030047280802  9.9005435191800277   F   F   F
  8.8201600910041655  8.4872030047280802  9.9005435191800277   F   F   F
 11.7602134546722219  8.4872030047280802  9.9005435191800277   F   F   F
 14.7002668183402765  8.4872030047280802  9.9005435191800277   F   F   F
 -0.0017780992764313  1.6980713944059309 12.3029424575185917   T   T   T
  2.9550222027688671  1.7026187437638396 12.3056185169809336   T   T   T
  5.9102081595446103  1.7192293018201648 12.3524397764854950   T   T   T
  8.7976063581270036  1.7178325904732612 12.3511170367451157   T   T   T
  1.4745606067915251  4.2490256455762516 12.3086051728142447   T   T   T
  4.4187803473491911  4.2491561671010727 12.3118691442195587   T   T   T
  7.3519719675938795  4.2193678623255444 12.3531240707236130   T   T   T
 10.2880188731313513  4.2455586408875448 12.3114375644459990   T   T   T
  2.9462035889442855  6.7968410304451208 12.3119759173571524   T   T   T
  5.8882505783620758  6.7856033809221064 12.3115030257297278   T   T   T
  8.8160017757840610  6.7938956469405873 12.3016349610396745   T   T   T
 11.7633673813676900  6.7968648175627484 12.3084467966932571   T   T   T
  4.4084662252641778  9.3502753264431373 12.3100387469007320   T   T   T
  7.3515915587815366  9.3408146034579911 12.3042619160908213   T   T   T
 10.2973192040317052  9.3524423580591058 12.3039096135546657   T   T   T
 13.2360259572325596  9.3468235433763613 12.3107327903801433   T   T   T
  0.0104772744828683  0.0048863746031240 14.7806492365170214   T   T   T
  2.9400341518518296  0.0083615897658098 14.7777804990868233   T   T   T
  5.8742063858050830 -0.0106576549988517 14.7688314897959838   T   T   T
  8.8264992539075777  0.0073350051357422 14.7820467146543599   T   T   T
  1.4787422841122386  2.5551239589770889 14.7717225778822865   T   T   T
  4.3967151865859826  2.5579912148722217 14.7738786602919081   T   T   T
  7.3349815368356879  2.5425568506045741 15.0635940979068224   T   T   T
 10.3140857102330781  2.5514905803725632 14.7584630646031147   T   T   T
  2.9424982275539717  5.1083677678006572 14.7759660652914899   T   T   T
  5.8826802838566987  5.1037312134370403 14.7878419730658575   T   T   T
  8.8319760806061200  5.1237290236626514 14.7542926369263299   T   T   T
 11.7671875304032998  5.1032095380599518 14.7724862886620034   T   T   T
  4.4176320543002063  7.6503968414495382 14.7763674689582896   T   T   T
  7.3523341742545627  7.6546849451379417 14.7815625049101520   T   T   T
 10.2950662022972850  7.6521886625004010 14.7711588464067667   T   T   T
 13.2392915804097324  7.6436770289397753 14.7755273231992472   T   T   T
  7.5722557497427729  2.6709891292929298 17.2941536837456198   T   T   T
  6.8201031389219864  2.1238154110874419 18.0175434909567116   T   T   T
