Ag  N  O 
 1.0000000000000000
    11.7283536979856873    0.0000000000000000    0.0000000000000000
     5.8641768489928436   10.1570522470247671    0.0000000000000000
     0.0000000000000000    0.0000000000000000   22.1821205207372749
 Ag  N   O  
  64   1   1
Selective dynamics
Cartesian
  0.0000000000000000  0.0000000000000000  7.5000000000000000   F   F   F
  2.9320884244964218  0.0000000000000000  7.5000000000000000   F   F   F
  5.8641768489928436  0.0000000000000000  7.5000000000000000   F   F   F
  8.7962652734892650  0.0000000000000000  7.5000000000000000   F   F   F
  1.4660442122482109  2.5392630617561918  7.5000000000000000   F   F   F
  4.3981326367446325  2.5392630617561918  7.5000000000000000   F   F   F
  7.3302210612410548  2.5392630617561918  7.5000000000000000   F   F   F
 10.2623094857374753  2.5392630617561918  7.5000000000000000   F   F   F
  2.9320884244964218  5.0785261235123835  7.5000000000000000   F   F   F
  5.8641768489928436  5.0785261235123835  7.5000000000000000   F   F   F
  8.7962652734892650  5.0785261235123835  7.5000000000000000   F   F   F
 11.7283536979856873  5.0785261235123835  7.5000000000000000   F   F   F
  4.3981326367446325  7.6177891852685757  7.5000000000000000   F   F   F
  7.3302210612410548  7.6177891852685757  7.5000000000000000   F   F   F
 10.2623094857374753  7.6177891852685757  7.5000000000000000   F   F   F
 13.1943979102338975  7.6177891852685757  7.5000000000000000   F   F   F
  1.4660442122482109  0.8464210205853973  9.8940401735790910   F   F   F
  4.3981326367446325  0.8464210205853973  9.8940401735790910   F   F   F
  7.3302210612410548  0.8464210205853973  9.8940401735790910   F   F   F
 10.2623094857374770  0.8464210205853973  9.8940401735790910   F   F   F
  2.9320884244964218  3.3856840823415890  9.8940401735790910   F   F   F
  5.8641768489928436  3.3856840823415890  9.8940401735790910   F   F   F
  8.7962652734892650  3.3856840823415890  9.8940401735790910   F   F   F
 11.7283536979856891  3.3856840823415890  9.8940401735790910   F   F   F
  4.3981326367446325  5.9249471440977812  9.8940401735790910   F   F   F
  7.3302210612410548  5.9249471440977812  9.8940401735790910   F   F   F
 10.2623094857374770  5.9249471440977812  9.8940401735790910   F   F   F
 13.1943979102338993  5.9249471440977812  9.8940401735790910   F   F   F
  5.8641768489928445  8.4642102058539734  9.8940401735790910   F   F   F
  8.7962652734892650  8.4642102058539734  9.8940401735790910   F   F   F
 11.7283536979856891  8.4642102058539734  9.8940401735790910   F   F   F
 14.6604421224821095  8.4642102058539734  9.8940401735790910   F   F   F
 -0.0035987055240273  1.6860532808743220 12.3068972660178009   T   T   T
  2.9376922794653759  1.6911413065842833 12.3101912637733317   T   T   T
  5.8809405107953152  1.7017706268257333 12.3442728805419009   T   T   T
  8.7776943853928699  1.7020019319826252 12.3488739435129364   T   T   T
  1.4620998391687736  4.2273008439253550 12.3098827069261656   T   T   T
  4.3970271489945514  4.2304173654662884 12.3116756542235439   T   T   T
  7.3278935463526347  4.2123451603794591 12.3488935397748776   T   T   T
 10.2591910127856831  4.2274314558334716 12.3117378527347778   T   T   T
  2.9275622170759061  6.7674173710706507 12.3125474819250673   T   T   T
  5.8627527819211567  6.7643286707204195 12.3123564905292469   T   T   T
  8.7908063237613092  6.7745893748071735 12.3010996276250424   T   T   T
 11.7246587802931774  6.7684082722940024 12.3089948029364695   T   T   T
  4.3916924966254500  9.3127133166472529 12.3119973330360057   T   T   T
  7.3280668940977094  9.3094805314040450 12.3026538149389335   T   T   T
 10.2642569412455558  9.3146527278495164 12.3087145669841647   T   T   T
 13.1934316775241598  9.3099136298894507 12.3118045245874566   T   T   T
 -0.0006590358099327 -0.0059030234872155 14.7528549330639063   T   T   T
  2.9315535457639053 -0.0001228672338367 14.7520295952420870   T   T   T
  5.8612374758563570 -0.0071120445494291 14.7532619796655649   T   T   T
  8.7938309877133438 -0.0021790454740930 14.7617764065070762   T   T   T
  1.4682640767147273  2.5345041895885752 14.7528783690666518   T   T   T
  4.3930254076843100  2.5415220519703996 14.7557573606830257   T   T   T
  7.3217940883397921  2.5341248897185853 14.9466105826612310   T   T   T
 10.2775550383552918  2.5350943645611697 14.7462449331583105   T   T   T
  2.9270694899485035  5.0767751090171114 14.7543835953021460   T   T   T
  5.8565461264848082  5.0804829198930710 14.7650587813486087   T   T   T
  8.8061557141016564  5.1052583251582542 14.7249591557463582   T   T   T
 11.7285085618161951  5.0773294866354082 14.7538627609352258   T   T   T
  4.3923834656639658  7.6163316776990460 14.7525029205443925   T   T   T
  7.3246123342865337  7.6206296606327859 14.7520686163807628   T   T   T
 10.2618319321129938  7.6237012435698510 14.7533759428943618   T   T   T
 13.1913313357445663  7.6163880392116292 14.7541523741112304   T   T   T
  7.7006444258452484  2.8767768178234485 17.3014623286143241   T   T   T
  7.1056784294426949  2.3303054032159705 18.1671413976407266   T   T   T
