Pt  N  O 
 1.0000000000000000
    11.2211673782643580    0.0000000000000000    0.0000000000000000
     5.6105836891321790    9.7178160096941610    0.0000000000000000
     0.0000000000000000    0.0000000000000000   21.8715335987779369
 Pt  N   O  
  64   1   1
Selective dynamics
Cartesian
  0.0000000000000000  0.0000000000000000  7.4999999999999991   F   F   F
  2.8052918445660895  0.0000000000000000  7.4999999999999991   F   F   F
  5.6105836891321790  0.0000000000000000  7.4999999999999991   F   F   F
  8.4158755336982694  0.0000000000000000  7.4999999999999991   F   F   F
  1.4026459222830447  2.4294540024235403  7.4999999999999991   F   F   F
  4.2079377668491347  2.4294540024235403  7.4999999999999991   F   F   F
  7.0132296114152233  2.4294540024235403  7.4999999999999991   F   F   F
  9.8185214559813137  2.4294540024235403  7.4999999999999991   F   F   F
  2.8052918445660895  4.8589080048470805  7.4999999999999991   F   F   F
  5.6105836891321790  4.8589080048470805  7.4999999999999991   F   F   F
  8.4158755336982694  4.8589080048470805  7.4999999999999991   F   F   F
 11.2211673782643580  4.8589080048470805  7.4999999999999991   F   F   F
  4.2079377668491347  7.2883620072706208  7.4999999999999991   F   F   F
  7.0132296114152242  7.2883620072706208  7.4999999999999991   F   F   F
  9.8185214559813137  7.2883620072706208  7.4999999999999991   F   F   F
 12.6238133005474040  7.2883620072706208  7.4999999999999991   F   F   F
  1.4026459222830447  0.8098180008078467  9.7905111995926450   F   F   F
  4.2079377668491338  0.8098180008078467  9.7905111995926450   F   F   F
  7.0132296114152242  0.8098180008078467  9.7905111995926450   F   F   F
  9.8185214559813137  0.8098180008078467  9.7905111995926450   F   F   F
  2.8052918445660895  3.2392720032313869  9.7905111995926450   F   F   F
  5.6105836891321790  3.2392720032313869  9.7905111995926450   F   F   F
  8.4158755336982694  3.2392720032313869  9.7905111995926450   F   F   F
 11.2211673782643580  3.2392720032313869  9.7905111995926450   F   F   F
  4.2079377668491347  5.6687260056549276  9.7905111995926450   F   F   F
  7.0132296114152233  5.6687260056549276  9.7905111995926450   F   F   F
  9.8185214559813137  5.6687260056549276  9.7905111995926450   F   F   F
 12.6238133005474040  5.6687260056549276  9.7905111995926450   F   F   F
  5.6105836891321790  8.0981800080784687  9.7905111995926450   F   F   F
  8.4158755336982694  8.0981800080784687  9.7905111995926450   F   F   F
 11.2211673782643580  8.0981800080784687  9.7905111995926450   F   F   F
 14.0264592228304483  8.0981800080784687  9.7905111995926450   F   F   F
 -0.0354020021232729  1.6401884182777535 12.1220254959553699   T   T   T
  2.8053088514885944  1.6195520193821116 12.0730272207551241   T   T   T
  5.6460501051351280  1.6402257867730197 12.1220097305433967   T   T   T
  8.4159060534429262  1.6289653343252379 12.1191777322993239   T   T   T
  1.4022368518213275  4.0462749117579175 12.0757712146370597   T   T   T
  4.2083657678407072  4.0462903096813010 12.0757500355565472   T   T   T
  7.0212258962236005  4.0444891964086809 12.1192236178540647   T   T   T
  9.8105741554617740  4.0444824354348912 12.1192024238159579   T   T   T
  2.8052992393631637  6.4783941203325943 12.0865415085778363   T   T   T
  5.6132278207606960  6.4794683919534348 12.0756354535587889   T   T   T
  8.4158754918573955  6.4375529799223656 12.1219416327464877   T   T   T
 11.2185372857100649  6.4794631581502395 12.0756355986901429   T   T   T
  4.2101705550355124  8.9097945564216037 12.0756139764819235   T   T   T
  7.0134215712759165  8.9081674094641432 12.0729247347077102   T   T   T
  9.8183490393302932  8.9081759068897597 12.0729084204374821   T   T   T
 12.6216149640955564  8.9097937010642632 12.0755936689700736   T   T   T
  0.0079136707498310 -0.0070418302892986 14.4150618300848130   T   T   T
  2.8053107189475632  0.0000959540834462 14.4110172969384749   T   T   T
  5.6027739485330255 -0.0069973796775101 14.4151060286714667   T   T   T
  8.4159382898134414 -0.0539719393134065 14.3973169166903219   T   T   T
  1.4128268770554020  2.4262583613252957 14.4148258947141610   T   T   T
  4.1978883685442581  2.4262867640643506 14.4148607698378957   T   T   T
  6.9590331937382706  2.3982290145642904 14.5530550270036994   T   T   T
  9.8729744026275128  2.3981609275918578 14.5528155861874993   T   T   T
  2.8053292065259128  4.8579578270643120 14.4183803144115217   T   T   T
  5.5637975051941044  4.8859550933232541 14.3971754803093983   T   T   T
  8.4159441952868477  4.9217905038506444 14.5528245823207687   T   T   T
 11.2680750437227033  4.8859515751298490 14.3971581304240495   T   T   T
  4.2087699301452730  7.2888082186127594 14.4186245849898551   T   T   T
  7.0110249781935110  7.2987760725831707 14.4151398776036448   T   T   T
  9.8207809068922245  7.2987921027214364 14.4151508741356977   T   T   T
 12.6230598396461886  7.2888050107661400 14.4186404048401613   T   T   T
  8.4162463311224194  3.2396942815878353 15.7874463125279796   T   T   T
  8.4164755840948864  3.2398943224676011 17.0074884591383082   T   T   T
