Pt  N  H 
 1.0000000000000000
     8.4158755336982694    0.0000000000000000    0.0000000000000000
     0.0000000000000000    8.4158755336982694    0.0000000000000000
     0.0000000000000000    0.0000000000000000   24.9182044325000014
 Pt  N   H  
  54   1   2
Selective dynamics
Cartesian
  1.4026459222830447  1.4026459222830447  7.5000000000000000   F   F   F
  4.2079377668491347  1.4026459222830447  7.5000000000000000   F   F   F
  7.0132296114152233  1.4026459222830447  7.5000000000000000   F   F   F
  1.4026459222830447  4.2079377668491347  7.5000000000000000   F   F   F
  4.2079377668491347  4.2079377668491347  7.5000000000000000   F   F   F
  7.0132296114152233  4.2079377668491347  7.5000000000000000   F   F   F
  1.4026459222830447  7.0132296114152233  7.5000000000000000   F   F   F
  4.2079377668491347  7.0132296114152233  7.5000000000000000   F   F   F
  7.0132296114152233  7.0132296114152233  7.5000000000000000   F   F   F
  0.0000000000000000  0.0000000000000000  9.4836408864999999   F   F   F
  2.8052918445660895  0.0000000000000000  9.4836408864999999   F   F   F
  5.6105836891321790  0.0000000000000000  9.4836408864999999   F   F   F
  0.0000000000000000  2.8052918445660895  9.4836408864999999   F   F   F
  2.8052918445660895  2.8052918445660895  9.4836408864999999   F   F   F
  5.6105836891321790  2.8052918445660895  9.4836408864999999   F   F   F
  0.0000000000000000  5.6105836891321790  9.4836408864999999   F   F   F
  2.8052918445660895  5.6105836891321790  9.4836408864999999   F   F   F
  5.6105836891321790  5.6105836891321790  9.4836408864999999   F   F   F
  1.4026459222830447  1.4026459222830447 11.4672817729999998   F   F   F
  4.2079377668491347  1.4026459222830447 11.4672817729999998   F   F   F
  7.0132296114152233  1.4026459222830447 11.4672817729999998   F   F   F
  1.4026459222830447  4.2079377668491347 11.4672817729999998   F   F   F
  4.2079377668491347  4.2079377668491347 11.4672817729999998   F   F   F
  7.0132296114152233  4.2079377668491347 11.4672817729999998   F   F   F
  1.4026459222830447  7.0132296114152233 11.4672817729999998   F   F   F
  4.2079377668491347  7.0132296114152233 11.4672817729999998   F   F   F
  7.0132296114152233  7.0132296114152233 11.4672817729999998   F   F   F
  0.0000000000000000  0.0000000000000000 13.4509226595000015   F   F   F
  2.8052918445660895  0.0000000000000000 13.4509226595000015   F   F   F
  5.6105836891321790  0.0000000000000000 13.4509226595000015   F   F   F
  0.0000000000000000  2.8052918445660895 13.4509226595000015   F   F   F
  2.8052918445660895  2.8052918445660895 13.4509226595000015   F   F   F
  5.6105836891321790  2.8052918445660895 13.4509226595000015   F   F   F
  0.0000000000000000  5.6105836891321790 13.4509226595000015   F   F   F
  2.8052918445660895  5.6105836891321790 13.4509226595000015   F   F   F
  5.6105836891321790  5.6105836891321790 13.4509226595000015   F   F   F
  1.4206351545362270  1.4158173018370097 15.4787060165900296   T   T   T
  4.1899485345959526  1.4158173018370097 15.4787060165900296   T   T   T
  7.0132296114152233  1.3933707452416300 15.4231510057386618   T   T   T
  1.4249347969033890  4.2079377668491347 15.4850906641851598   T   T   T
  4.1856488922287900  4.2079377668491347 15.4850906641851598   T   T   T
  7.0132296114152233  4.2079377668491347 15.4342410099887068   T   T   T
  1.4206351545362272  7.0000582318612592 15.4787060165900296   T   T   T
  4.1899485345959526  7.0000582318612592 15.4787060165900296   T   T   T
  7.0132296114152233  7.0225047884566383 15.4231510057386618   T   T   T
 -0.0214351170835512  0.0000000000000000 17.4054193556711390   T   T   T
  2.8052918445660895  0.0000000000000000 17.4415112049904550   T   T   T
  5.6320188062157319  0.0000000000000000 17.4054193556711390   T   T   T
 -0.0255522753414276  2.7979228252864643 17.3894572791272886   T   T   T
  2.8052918445660895  2.7048444467049433 17.5863307836115084   T   T   T
  5.6361359644736071  2.7979228252864647 17.3894572791272886   T   T   T
 -0.0255522753414276  5.6179527084118046 17.3894572791272886   T   T   T
  2.8052918445660895  5.7110310869933265 17.5863307836115084   T   T   T
  5.6361359644736071  5.6179527084118046 17.3894572791272886   T   T   T
  2.8052918445660895  4.2079377668491347 19.0050962262319416   T   T   T
  1.9667826623197930  4.2079377668491347 19.5905494604484716   T   T   T
  3.6438010268123859  4.2079377668491347 19.5905494604484716   T   T   T
