Pd  N  H 
 1.0000000000000000
     8.3586839247702081    0.0000000000000000    0.0000000000000000
     0.0000000000000000    8.3586839247702081    0.0000000000000000
     0.0000000000000000    0.0000000000000000   24.8508034749999993
 Pd  N   H  
  54   1   2
Selective dynamics
Cartesian
  1.3931139874617013  1.3931139874617013  7.5000000000000000   F   F   F
  4.1793419623851040  1.3931139874617013  7.5000000000000000   F   F   F
  6.9655699373085067  1.3931139874617013  7.5000000000000000   F   F   F
  1.3931139874617013  4.1793419623851040  7.5000000000000000   F   F   F
  4.1793419623851040  4.1793419623851040  7.5000000000000000   F   F   F
  6.9655699373085067  4.1793419623851040  7.5000000000000000   F   F   F
  1.3931139874617013  6.9655699373085067  7.5000000000000000   F   F   F
  4.1793419623851040  6.9655699373085067  7.5000000000000000   F   F   F
  6.9655699373085067  6.9655699373085067  7.5000000000000000   F   F   F
  0.0000000000000000  0.0000000000000000  9.4701606950000006   F   F   F
  2.7862279749234027  0.0000000000000000  9.4701606950000006   F   F   F
  5.5724559498468054  0.0000000000000000  9.4701606950000006   F   F   F
  0.0000000000000000  2.7862279749234027  9.4701606950000006   F   F   F
  2.7862279749234027  2.7862279749234027  9.4701606950000006   F   F   F
  5.5724559498468054  2.7862279749234027  9.4701606950000006   F   F   F
  0.0000000000000000  5.5724559498468054  9.4701606950000006   F   F   F
  2.7862279749234027  5.5724559498468054  9.4701606950000006   F   F   F
  5.5724559498468054  5.5724559498468054  9.4701606950000006   F   F   F
  1.3931139874617013  1.3931139874617013 11.4403213899999994   F   F   F
  4.1793419623851040  1.3931139874617013 11.4403213899999994   F   F   F
  6.9655699373085067  1.3931139874617013 11.4403213899999994   F   F   F
  1.3931139874617013  4.1793419623851040 11.4403213899999994   F   F   F
  4.1793419623851040  4.1793419623851040 11.4403213899999994   F   F   F
  6.9655699373085067  4.1793419623851040 11.4403213899999994   F   F   F
  1.3931139874617013  6.9655699373085067 11.4403213899999994   F   F   F
  4.1793419623851040  6.9655699373085067 11.4403213899999994   F   F   F
  6.9655699373085067  6.9655699373085067 11.4403213899999994   F   F   F
  0.0000000000000000  0.0000000000000000 13.4104820849999999   F   F   F
  2.7862279749234027  0.0000000000000000 13.4104820849999999   F   F   F
  5.5724559498468054  0.0000000000000000 13.4104820849999999   F   F   F
  0.0000000000000000  2.7862279749234027 13.4104820849999999   F   F   F
  2.7862279749234027  2.7862279749234027 13.4104820849999999   F   F   F
  5.5724559498468054  2.7862279749234027 13.4104820849999999   F   F   F
  0.0000000000000000  5.5724559498468054 13.4104820849999999   F   F   F
  2.7862279749234027  5.5724559498468054 13.4104820849999999   F   F   F
  5.5724559498468054  5.5724559498468054 13.4104820849999999   F   F   F
  1.4101627452204364  1.3995427201644091 15.4439700421439063   T   T   T
  4.1622932046263674  1.3995427201644091 15.4439700421439063   T   T   T
  6.9655699373085067  1.3855184426601950 15.4065527345421405   T   T   T
  1.4051302801327716  4.1793419623851040 15.4404947056669446   T   T   T
  4.1673256697140362  4.1793419623851040 15.4404947056669446   T   T   T
  6.9655699373085067  4.1793419623851040 15.4035562120635383   T   T   T
  1.4101627452204364  6.9591412046057988 15.4439700421439063   T   T   T
  4.1622932046263674  6.9591412046057988 15.4439700421439063   T   T   T
  6.9655699373085067  6.9731654821100140 15.4065527345421405   T   T   T
 -0.0123199310093365  0.0000000000000000 17.4222995369657170   T   T   T
  2.7862279749234027  0.0000000000000000 17.4523113249625581   T   T   T
  5.5847758808561423  0.0000000000000000 17.4222995369657170   T   T   T
 -0.0229359899712204  2.7798221573895727 17.3987075132799731   T   T   T
  2.7862279749234027  2.7352267434322561 17.5471077732922822   T   T   T
  5.5953919398180254  2.7798221573895727 17.3987075132799731   T   T   T
 -0.0229359899712204  5.5788617673806344 17.3987075132799731   T   T   T
  2.7862279749234027  5.6234571813379537 17.5471077732922822   T   T   T
  5.5953919398180254  5.5788617673806344 17.3987075132799731   T   T   T
  2.7862279749234027  4.1793419623851040 19.0229203383363306   T   T   T
  1.9533583696016619  4.1793419623851040 19.6165611955290835   T   T   T
  3.6190975802451448  4.1793419623851040 19.6165611955290835   T   T   T
