Rh  N  H 
 1.0000000000000000
     8.1252569843256168    0.0000000000000000    0.0000000000000000
     0.0000000000000000    8.1252569843256168    0.0000000000000000
     0.0000000000000000    0.0000000000000000   24.5757071875000008
 Rh  N   H  
  54   1   2
Selective dynamics
Cartesian
  1.3542094973876027  1.3542094973876027  7.5000000000000000   F   F   F
  4.0626284921628084  1.3542094973876027  7.5000000000000000   F   F   F
  6.7710474869380128  1.3542094973876027  7.5000000000000000   F   F   F
  1.3542094973876027  4.0626284921628084  7.5000000000000000   F   F   F
  4.0626284921628084  4.0626284921628084  7.5000000000000000   F   F   F
  6.7710474869380128  4.0626284921628084  7.5000000000000000   F   F   F
  1.3542094973876027  6.7710474869380128  7.5000000000000000   F   F   F
  4.0626284921628084  6.7710474869380128  7.5000000000000000   F   F   F
  6.7710474869380128  6.7710474869380128  7.5000000000000000   F   F   F
  0.0000000000000000  0.0000000000000000  9.4151414375000009   F   F   F
  2.7084189947752053  0.0000000000000000  9.4151414375000009   F   F   F
  5.4168379895504106  0.0000000000000000  9.4151414375000009   F   F   F
  0.0000000000000000  2.7084189947752053  9.4151414375000009   F   F   F
  2.7084189947752053  2.7084189947752053  9.4151414375000009   F   F   F
  5.4168379895504106  2.7084189947752053  9.4151414375000009   F   F   F
  0.0000000000000000  5.4168379895504106  9.4151414375000009   F   F   F
  2.7084189947752053  5.4168379895504106  9.4151414375000009   F   F   F
  5.4168379895504106  5.4168379895504106  9.4151414375000009   F   F   F
  1.3542094973876027  1.3542094973876027 11.3302828750000000   F   F   F
  4.0626284921628084  1.3542094973876027 11.3302828750000000   F   F   F
  6.7710474869380128  1.3542094973876027 11.3302828750000000   F   F   F
  1.3542094973876027  4.0626284921628084 11.3302828750000000   F   F   F
  4.0626284921628084  4.0626284921628084 11.3302828750000000   F   F   F
  6.7710474869380128  4.0626284921628084 11.3302828750000000   F   F   F
  1.3542094973876027  6.7710474869380128 11.3302828750000000   F   F   F
  4.0626284921628084  6.7710474869380128 11.3302828750000000   F   F   F
  6.7710474869380128  6.7710474869380128 11.3302828750000000   F   F   F
  0.0000000000000000  0.0000000000000000 13.2454243124999991   F   F   F
  2.7084189947752053  0.0000000000000000 13.2454243124999991   F   F   F
  5.4168379895504106  0.0000000000000000 13.2454243124999991   F   F   F
  0.0000000000000000  2.7084189947752053 13.2454243124999991   F   F   F
  2.7084189947752053  2.7084189947752053 13.2454243124999991   F   F   F
  5.4168379895504106  2.7084189947752053 13.2454243124999991   F   F   F
  0.0000000000000000  5.4168379895504106 13.2454243124999991   F   F   F
  2.7084189947752053  5.4168379895504106 13.2454243124999991   F   F   F
  5.4168379895504106  5.4168379895504106 13.2454243124999991   F   F   F
  1.3663842531461776  1.3581472272540882 15.1975715936367042   T   T   T
  4.0504537364042328  1.3581472272540882 15.1975715936367042   T   T   T
  6.7710474869380128  1.3504356955852355 15.1712903913272878   T   T   T
  1.3509316220727796  4.0626284921628084 15.1857276531487848   T   T   T
  4.0659063674776315  4.0626284921628084 15.1857276531487848   T   T   T
  6.7710474869380128  4.0626284921628084 15.1781178405255464   T   T   T
  1.3663842531461776  6.7671097570715277 15.1975715936367042   T   T   T
  4.0504537364042328  6.7671097570715277 15.1975715936367042   T   T   T
  6.7710474869380128  6.7748212887403794 15.1712903913272878   T   T   T
 -0.0096302708363041  0.0000000000000000 17.0368212442251519   T   T   T
  2.7084189947752053  0.0000000000000000 17.0539607051671567   T   T   T
  5.4264682603867138  0.0000000000000000 17.0368212442251519   T   T   T
 -0.0174583636055482  2.7006221653916507 17.0252497059540246   T   T   T
  2.7084189947752053  2.6908065408782997 17.1409021221254321   T   T   T
  5.4342963531559585  2.7006221653916507 17.0252497059540246   T   T   T
 -0.0174583636055482  5.4246348189339644 17.0252497059540246   T   T   T
  2.7084189947752053  5.4344504434473144 17.1409021221254321   T   T   T
  5.4342963531559585  5.4246348189339644 17.0252497059540246   T   T   T
  2.7084189947752053  4.0626284921628084 18.7011460831139260   T   T   T
  1.8733368403877697  4.0626284921628084 19.2908148336997236   T   T   T
  3.5435011491626405  4.0626284921628084 19.2908148336997236   T   T   T
