Cu  N  H 
 1.0000000000000000
     7.7122337857502483    0.0000000000000000    0.0000000000000000
     0.0000000000000000    7.7122337857502483    0.0000000000000000
     0.0000000000000000    0.0000000000000000   24.0889546800000005
 Cu  N   H  
  54   1   2
Selective dynamics
Cartesian
  1.2853722976250412  1.2853722976250412  7.5000000000000000   F   F   F
  3.8561168928751237  1.2853722976250412  7.5000000000000000   F   F   F
  6.4268614881252066  1.2853722976250412  7.5000000000000000   F   F   F
  1.2853722976250412  3.8561168928751237  7.5000000000000000   F   F   F
  3.8561168928751237  3.8561168928751237  7.5000000000000000   F   F   F
  6.4268614881252066  3.8561168928751237  7.5000000000000000   F   F   F
  1.2853722976250412  6.4268614881252066  7.5000000000000000   F   F   F
  3.8561168928751237  6.4268614881252066  7.5000000000000000   F   F   F
  6.4268614881252066  6.4268614881252066  7.5000000000000000   F   F   F
  0.0000000000000000  0.0000000000000000  9.3177909359999997   F   F   F
  2.5707445952500825  0.0000000000000000  9.3177909359999997   F   F   F
  5.1414891905001650  0.0000000000000000  9.3177909359999997   F   F   F
  0.0000000000000000  2.5707445952500825  9.3177909359999997   F   F   F
  2.5707445952500825  2.5707445952500825  9.3177909359999997   F   F   F
  5.1414891905001650  2.5707445952500825  9.3177909359999997   F   F   F
  0.0000000000000000  5.1414891905001650  9.3177909359999997   F   F   F
  2.5707445952500825  5.1414891905001650  9.3177909359999997   F   F   F
  5.1414891905001650  5.1414891905001650  9.3177909359999997   F   F   F
  1.2853722976250412  1.2853722976250412 11.1355818719999995   F   F   F
  3.8561168928751237  1.2853722976250412 11.1355818719999995   F   F   F
  6.4268614881252066  1.2853722976250412 11.1355818719999995   F   F   F
  1.2853722976250412  3.8561168928751237 11.1355818719999995   F   F   F
  3.8561168928751237  3.8561168928751237 11.1355818719999995   F   F   F
  6.4268614881252066  3.8561168928751237 11.1355818719999995   F   F   F
  1.2853722976250412  6.4268614881252066 11.1355818719999995   F   F   F
  3.8561168928751237  6.4268614881252066 11.1355818719999995   F   F   F
  6.4268614881252066  6.4268614881252066 11.1355818719999995   F   F   F
  0.0000000000000000  0.0000000000000000 12.9533728080000010   F   F   F
  2.5707445952500825  0.0000000000000000 12.9533728080000010   F   F   F
  5.1414891905001650  0.0000000000000000 12.9533728080000010   F   F   F
  0.0000000000000000  2.5707445952500825 12.9533728080000010   F   F   F
  2.5707445952500825  2.5707445952500825 12.9533728080000010   F   F   F
  5.1414891905001650  2.5707445952500825 12.9533728080000010   F   F   F
  0.0000000000000000  5.1414891905001650 12.9533728080000010   F   F   F
  2.5707445952500825  5.1414891905001650 12.9533728080000010   F   F   F
  5.1414891905001650  5.1414891905001650 12.9533728080000010   F   F   F
  1.3022259191726049  1.3040423598715511 14.8493769848347821   T   T   T
  3.8392632713275603  1.3040423598715511 14.8493769848347821   T   T   T
  6.4268614881252066  1.2720559125330835 14.8092031918891571   T   T   T
  1.3023791595219973  3.8561168928751237 14.8449441461750684   T   T   T
  3.8391100309781674  3.8561168928751237 14.8449441461750684   T   T   T
  6.4268614881252066  3.8561168928751237 14.8152149233142989   T   T   T
  1.3022259191726049  6.4081914258786963 14.8493769848347821   T   T   T
  3.8392632713275603  6.4081914258786963 14.8493769848347821   T   T   T
  6.4268614881252066  6.4401778732171655 14.8092031918891571   T   T   T
 -0.0005351653522878  0.0000000000000000 16.6428528090459693   T   T   T
  2.5707445952500825  0.0000000000000000 16.6279400531639112   T   T   T
  5.1420243558524534  0.0000000000000000 16.6428528090459693   T   T   T
 -0.0348748831098597  2.5570736212600944 16.6104553094983522   T   T   T
  2.5707445952500825  2.5162023806073872 16.8081599971525861   T   T   T
  5.1763640736100243  2.5570736212600944 16.6104553094983522   T   T   T
 -0.0348748831098597  5.1551601644901499 16.6104553094983522   T   T   T
  2.5707445952500825  5.1960314051428593 16.8081599971525861   T   T   T
  5.1763640736100243  5.1551601644901499 16.6104553094983522   T   T   T
  2.5707445952500825  3.8561168928751237 18.2769346585131878   T   T   T
  1.7475667653475604  3.8561168928751237 18.8828471429056286   T   T   T
  3.3939224251526050  3.8561168928751237 18.8828471429056286   T   T   T
