Ir  N  H 
 1.0000000000000000
     8.2153868178891649    0.0000000000000000    0.0000000000000000
     0.0000000000000000    8.2153868178891649    0.0000000000000000
     0.0000000000000000    0.0000000000000000   24.6819262150000007
 Ir  N   H  
  54   1   2
Selective dynamics
Cartesian
  1.3692311363148608  1.3692311363148608  7.5000000000000000   F   F   F
  4.1076934089445825  1.3692311363148608  7.5000000000000000   F   F   F
  6.8461556815743041  1.3692311363148608  7.5000000000000000   F   F   F
  1.3692311363148608  4.1076934089445825  7.5000000000000000   F   F   F
  4.1076934089445825  4.1076934089445825  7.5000000000000000   F   F   F
  6.8461556815743041  4.1076934089445825  7.5000000000000000   F   F   F
  1.3692311363148608  6.8461556815743041  7.5000000000000000   F   F   F
  4.1076934089445825  6.8461556815743041  7.5000000000000000   F   F   F
  6.8461556815743041  6.8461556815743041  7.5000000000000000   F   F   F
  0.0000000000000000  0.0000000000000000  9.4363852430000001   F   F   F
  2.7384622726297216  0.0000000000000000  9.4363852430000001   F   F   F
  5.4769245452594433  0.0000000000000000  9.4363852430000001   F   F   F
  0.0000000000000000  2.7384622726297216  9.4363852430000001   F   F   F
  2.7384622726297216  2.7384622726297216  9.4363852430000001   F   F   F
  5.4769245452594433  2.7384622726297216  9.4363852430000001   F   F   F
  0.0000000000000000  5.4769245452594433  9.4363852430000001   F   F   F
  2.7384622726297216  5.4769245452594433  9.4363852430000001   F   F   F
  5.4769245452594433  5.4769245452594433  9.4363852430000001   F   F   F
  1.3692311363148608  1.3692311363148608 11.3727704860000003   F   F   F
  4.1076934089445825  1.3692311363148608 11.3727704860000003   F   F   F
  6.8461556815743041  1.3692311363148608 11.3727704860000003   F   F   F
  1.3692311363148608  4.1076934089445825 11.3727704860000003   F   F   F
  4.1076934089445825  4.1076934089445825 11.3727704860000003   F   F   F
  6.8461556815743041  4.1076934089445825 11.3727704860000003   F   F   F
  1.3692311363148608  6.8461556815743041 11.3727704860000003   F   F   F
  4.1076934089445825  6.8461556815743041 11.3727704860000003   F   F   F
  6.8461556815743041  6.8461556815743041 11.3727704860000003   F   F   F
  0.0000000000000000  0.0000000000000000 13.3091557290000004   F   F   F
  2.7384622726297216  0.0000000000000000 13.3091557290000004   F   F   F
  5.4769245452594433  0.0000000000000000 13.3091557290000004   F   F   F
  0.0000000000000000  2.7384622726297216 13.3091557290000004   F   F   F
  2.7384622726297216  2.7384622726297216 13.3091557290000004   F   F   F
  5.4769245452594433  2.7384622726297216 13.3091557290000004   F   F   F
  0.0000000000000000  5.4769245452594433 13.3091557290000004   F   F   F
  2.7384622726297216  5.4769245452594433 13.3091557290000004   F   F   F
  5.4769245452594433  5.4769245452594433 13.3091557290000004   F   F   F
  1.3794295056083681  1.3787829228288682 15.2840018250469836   T   T   T
  4.0974950396510756  1.3787829228288682 15.2840018250469836   T   T   T
  6.8461556815743041  1.3625425833388087 15.2459037002085740   T   T   T
  1.3708975400389325  4.1076934089445825 15.2805907772123479   T   T   T
  4.1060270052205103  4.1076934089445825 15.2805907772123479   T   T   T
  6.8461556815743041  4.1076934089445825 15.2577182288816733   T   T   T
  1.3794295056083681  6.8366038950602963 15.2840018250469836   T   T   T
  4.0974950396510756  6.8366038950602963 15.2840018250469836   T   T   T
  6.8461556815743041  6.8528442345503553 15.2459037002085740   T   T   T
 -0.0149028045063276  0.0000000000000000 17.1143421508380804   T   T   T
  2.7384622726297216  0.0000000000000000 17.1284313759224531   T   T   T
  5.4918273497657708  0.0000000000000000 17.1143421508380804   T   T   T
 -0.0229615758308021  2.7323963697320663 17.1085674321746986   T   T   T
  2.7384622726297216  2.6867354586581493 17.2178581080902475   T   T   T
  5.4998861210902446  2.7323963697320663 17.1085674321746986   T   T   T
 -0.0229615758308021  5.4829904481570990 17.1085674321746986   T   T   T
  2.7384622726297216  5.5286513592310165 17.2178581080902475   T   T   T
  5.4998861210902446  5.4829904481570990 17.1085674321746986   T   T   T
  2.7384622726297216  4.1076934089445825 18.7691161353734728   T   T   T
  1.9002208486665306  4.1076934089445825 19.3524300108336256   T   T   T
  3.5767036965929129  4.1076934089445825 19.3524300108336256   T   T   T
