Ag  N  H 
 1.0000000000000000
     8.7962652734892650    0.0000000000000000    0.0000000000000000
     0.0000000000000000    8.7962652734892650    0.0000000000000000
     0.0000000000000000    0.0000000000000000   25.3664980399999997
 Ag  N   H  
  54   1   2
Selective dynamics
Cartesian
  1.4660442122482107  1.4660442122482107  7.5000000000000000   F   F   F
  4.3981326367446325  1.4660442122482107  7.5000000000000000   F   F   F
  7.3302210612410530  1.4660442122482107  7.5000000000000000   F   F   F
  1.4660442122482107  4.3981326367446325  7.5000000000000000   F   F   F
  4.3981326367446325  4.3981326367446325  7.5000000000000000   F   F   F
  7.3302210612410530  4.3981326367446325  7.5000000000000000   F   F   F
  1.4660442122482107  7.3302210612410530  7.5000000000000000   F   F   F
  4.3981326367446325  7.3302210612410530  7.5000000000000000   F   F   F
  7.3302210612410530  7.3302210612410530  7.5000000000000000   F   F   F
  0.0000000000000000  0.0000000000000000  9.5732996079999992   F   F   F
  2.9320884244964214  0.0000000000000000  9.5732996079999992   F   F   F
  5.8641768489928427  0.0000000000000000  9.5732996079999992   F   F   F
  0.0000000000000000  2.9320884244964214  9.5732996079999992   F   F   F
  2.9320884244964214  2.9320884244964214  9.5732996079999992   F   F   F
  5.8641768489928427  2.9320884244964214  9.5732996079999992   F   F   F
  0.0000000000000000  5.8641768489928427  9.5732996079999992   F   F   F
  2.9320884244964214  5.8641768489928427  9.5732996079999992   F   F   F
  5.8641768489928427  5.8641768489928427  9.5732996079999992   F   F   F
  1.4660442122482107  1.4660442122482107 11.6465992160000003   F   F   F
  4.3981326367446325  1.4660442122482107 11.6465992160000003   F   F   F
  7.3302210612410530  1.4660442122482107 11.6465992160000003   F   F   F
  1.4660442122482107  4.3981326367446325 11.6465992160000003   F   F   F
  4.3981326367446325  4.3981326367446325 11.6465992160000003   F   F   F
  7.3302210612410530  4.3981326367446325 11.6465992160000003   F   F   F
  1.4660442122482107  7.3302210612410530 11.6465992160000003   F   F   F
  4.3981326367446325  7.3302210612410530 11.6465992160000003   F   F   F
  7.3302210612410530  7.3302210612410530 11.6465992160000003   F   F   F
  0.0000000000000000  0.0000000000000000 13.7198988240000013   F   F   F
  2.9320884244964214  0.0000000000000000 13.7198988240000013   F   F   F
  5.8641768489928427  0.0000000000000000 13.7198988240000013   F   F   F
  0.0000000000000000  2.9320884244964214 13.7198988240000013   F   F   F
  2.9320884244964214  2.9320884244964214 13.7198988240000013   F   F   F
  5.8641768489928427  2.9320884244964214 13.7198988240000013   F   F   F
  0.0000000000000000  5.8641768489928427 13.7198988240000013   F   F   F
  2.9320884244964214  5.8641768489928427 13.7198988240000013   F   F   F
  5.8641768489928427  5.8641768489928427 13.7198988240000013   F   F   F
  1.4806542791149500  1.4823242002236769 15.8866122044821267   T   T   T
  4.3835225698778970  1.4823242002236769 15.8866122044821267   T   T   T
  7.3302210612410530  1.4551908557815743 15.8548089954656639   T   T   T
  1.4817300532643587  4.3981326367446325 15.8914772994741025   T   T   T
  4.3824467957284856  4.3981326367446325 15.8914772994741025   T   T   T
  7.3302210612410530  4.3981326367446325 15.8610630141218731   T   T   T
  1.4806542791149500  7.3139410732655872 15.8866122044821267   T   T   T
  4.3835225698778970  7.3139410732655872 15.8866122044821267   T   T   T
  7.3302210612410530  7.3410744177076888 15.8548089954656639   T   T   T
 -0.0055944323028696  0.0000000000000000 17.9778944192328183   T   T   T
  2.9320884244964214  0.0000000000000000 17.9557837743082871   T   T   T
  5.8697712812957148  0.0000000000000000 17.9778944192328183   T   T   T
 -0.0344308416650571  2.9169688209254057 17.9532669421373967   T   T   T
  2.9320884244964214  2.8393357897030165 18.1106620758771832   T   T   T
  5.8986076906578981  2.9169688209254057 17.9532669421373967   T   T   T
 -0.0344308416650571  5.8792964525638549 17.9532669421373967   T   T   T
  2.9320884244964214  5.9569294837862472 18.1106620758771832   T   T   T
  5.8986076906578981  5.8792964525638549 17.9532669421373967   T   T   T
  2.9320884244964214  4.3981326367446325 19.7030947553106692   T   T   T
  2.1110908626428002  4.3981326367446325 20.3129662250368987   T   T   T
  3.7530859863500425  4.3981326367446325 20.3129662250368987   T   T   T
