Ni  N  H 
 1.0000000000000000
     7.4637869660136236    0.0000000000000000    0.0000000000000000
     0.0000000000000000    7.4637869660136236    0.0000000000000000
     0.0000000000000000    0.0000000000000000   23.7961572950000004
 Ni  N   H  
  54   1   2
Selective dynamics
Cartesian
  1.2439644943356039  1.2439644943356039  7.5000000000000009   F   F   F
  3.7318934830068118  1.2439644943356039  7.5000000000000009   F   F   F
  6.2198224716780190  1.2439644943356039  7.5000000000000009   F   F   F
  1.2439644943356039  3.7318934830068118  7.5000000000000009   F   F   F
  3.7318934830068118  3.7318934830068118  7.5000000000000009   F   F   F
  6.2198224716780190  3.7318934830068118  7.5000000000000009   F   F   F
  1.2439644943356039  6.2198224716780190  7.5000000000000009   F   F   F
  3.7318934830068118  6.2198224716780190  7.5000000000000009   F   F   F
  6.2198224716780190  6.2198224716780190  7.5000000000000009   F   F   F
  0.0000000000000000  0.0000000000000000  9.2592314590000004   F   F   F
  2.4879289886712077  0.0000000000000000  9.2592314590000004   F   F   F
  4.9758579773424154  0.0000000000000000  9.2592314590000004   F   F   F
  0.0000000000000000  2.4879289886712077  9.2592314590000004   F   F   F
  2.4879289886712077  2.4879289886712077  9.2592314590000004   F   F   F
  4.9758579773424154  2.4879289886712077  9.2592314590000004   F   F   F
  0.0000000000000000  4.9758579773424154  9.2592314590000004   F   F   F
  2.4879289886712077  4.9758579773424154  9.2592314590000004   F   F   F
  4.9758579773424154  4.9758579773424154  9.2592314590000004   F   F   F
  1.2439644943356039  1.2439644943356039 11.0184629180000009   F   F   F
  3.7318934830068118  1.2439644943356039 11.0184629180000009   F   F   F
  6.2198224716780190  1.2439644943356039 11.0184629180000009   F   F   F
  1.2439644943356039  3.7318934830068118 11.0184629180000009   F   F   F
  3.7318934830068118  3.7318934830068118 11.0184629180000009   F   F   F
  6.2198224716780190  3.7318934830068118 11.0184629180000009   F   F   F
  1.2439644943356039  6.2198224716780190 11.0184629180000009   F   F   F
  3.7318934830068118  6.2198224716780190 11.0184629180000009   F   F   F
  6.2198224716780190  6.2198224716780190 11.0184629180000009   F   F   F
  0.0000000000000000  0.0000000000000000 12.7776943769999995   F   F   F
  2.4879289886712077  0.0000000000000000 12.7776943769999995   F   F   F
  4.9758579773424154  0.0000000000000000 12.7776943769999995   F   F   F
  0.0000000000000000  2.4879289886712077 12.7776943769999995   F   F   F
  2.4879289886712077  2.4879289886712077 12.7776943769999995   F   F   F
  4.9758579773424154  2.4879289886712077 12.7776943769999995   F   F   F
  0.0000000000000000  4.9758579773424154 12.7776943769999995   F   F   F
  2.4879289886712077  4.9758579773424154 12.7776943769999995   F   F   F
  4.9758579773424154  4.9758579773424154 12.7776943769999995   F   F   F
  1.2581836691439348  1.2528076260667802 14.5941735516151905   T   T   T
  3.7176743081984811  1.2528076260667802 14.5941735516151905   T   T   T
  6.2198224716780190  1.2372889247298595 14.5670019640652590   T   T   T
  1.2567298493484247  3.7318934830068118 14.5963230891270825   T   T   T
  3.7191281279939910  3.7318934830068118 14.5963230891270825   T   T   T
  6.2198224716780190  3.7318934830068118 14.5690417496526123   T   T   T
  1.2581836691439348  6.2109793399468431 14.5941735516151905   T   T   T
  3.7176743081984811  6.2109793399468431 14.5941735516151905   T   T   T
  6.2198224716780190  6.2264980412837634 14.5670019640652590   T   T   T
 -0.0008442317825626  0.0000000000000000 16.3068774507345680   T   T   T
  2.4879289886712077  0.0000000000000000 16.3138507575921494   T   T   T
  4.9767022091249782  0.0000000000000000 16.3068774507345680   T   T   T
 -0.0244597401122962  2.4778838969146086 16.2865655776024951   T   T   T
  2.4879289886712077  2.4683146103000144 16.4693163859871099   T   T   T
  5.0003177174547124  2.4778838969146086 16.2865655776024951   T   T   T
 -0.0244597401122962  4.9859030690990140 16.2865655776024951   T   T   T
  2.4879289886712077  4.9954723557136074 16.4693163859871099   T   T   T
  5.0003177174547124  4.9859030690990140 16.2865655776024951   T   T   T
  2.4879289886712077  3.7318934830068118 17.9323373168792344   T   T   T
  1.6587222607599790  3.7318934830068118 18.5302883369131557   T   T   T
  3.3171357165824369  3.7318934830068118 18.5302883369131557   T   T   T
