Au  N  H 
 1.0000000000000000
     8.8201600910041655    0.0000000000000000    0.0000000000000000
     0.0000000000000000    8.8201600910041655    0.0000000000000000
     0.0000000000000000    0.0000000000000000   25.3946583525000023
 Au  N   H  
  54   1   2
Selective dynamics
Cartesian
  1.4700266818340275  1.4700266818340275  7.5000000000000000   F   F   F
  4.4100800455020828  1.4700266818340275  7.5000000000000000   F   F   F
  7.3501334091701374  1.4700266818340275  7.5000000000000000   F   F   F
  1.4700266818340275  4.4100800455020828  7.5000000000000000   F   F   F
  4.4100800455020828  4.4100800455020828  7.5000000000000000   F   F   F
  7.3501334091701374  4.4100800455020828  7.5000000000000000   F   F   F
  1.4700266818340275  7.3501334091701374  7.5000000000000000   F   F   F
  4.4100800455020828  7.3501334091701374  7.5000000000000000   F   F   F
  7.3501334091701374  7.3501334091701374  7.5000000000000000   F   F   F
  0.0000000000000000  0.0000000000000000  9.5789316705000012   F   F   F
  2.9400533636680550  0.0000000000000000  9.5789316705000012   F   F   F
  5.8801067273361101  0.0000000000000000  9.5789316705000012   F   F   F
  0.0000000000000000  2.9400533636680550  9.5789316705000012   F   F   F
  2.9400533636680550  2.9400533636680550  9.5789316705000012   F   F   F
  5.8801067273361101  2.9400533636680550  9.5789316705000012   F   F   F
  0.0000000000000000  5.8801067273361101  9.5789316705000012   F   F   F
  2.9400533636680550  5.8801067273361101  9.5789316705000012   F   F   F
  5.8801067273361101  5.8801067273361101  9.5789316705000012   F   F   F
  1.4700266818340275  1.4700266818340275 11.6578633410000005   F   F   F
  4.4100800455020828  1.4700266818340275 11.6578633410000005   F   F   F
  7.3501334091701374  1.4700266818340275 11.6578633410000005   F   F   F
  1.4700266818340275  4.4100800455020828 11.6578633410000005   F   F   F
  4.4100800455020828  4.4100800455020828 11.6578633410000005   F   F   F
  7.3501334091701374  4.4100800455020828 11.6578633410000005   F   F   F
  1.4700266818340275  7.3501334091701374 11.6578633410000005   F   F   F
  4.4100800455020828  7.3501334091701374 11.6578633410000005   F   F   F
  7.3501334091701374  7.3501334091701374 11.6578633410000005   F   F   F
  0.0000000000000000  0.0000000000000000 13.7367950114999999   F   F   F
  2.9400533636680550  0.0000000000000000 13.7367950114999999   F   F   F
  5.8801067273361101  0.0000000000000000 13.7367950114999999   F   F   F
  0.0000000000000000  2.9400533636680550 13.7367950114999999   F   F   F
  2.9400533636680550  2.9400533636680550 13.7367950114999999   F   F   F
  5.8801067273361101  2.9400533636680550 13.7367950114999999   F   F   F
  0.0000000000000000  5.8801067273361101 13.7367950114999999   F   F   F
  2.9400533636680550  5.8801067273361101 13.7367950114999999   F   F   F
  5.8801067273361101  5.8801067273361101 13.7367950114999999   F   F   F
  1.4861781018724070  1.5002946717067978 15.8900063619189051   T   T   T
  4.3939286254637038  1.5002946717067978 15.8900063619189051   T   T   T
  7.3501334091701374  1.4537256256278908 15.8304592137235414   T   T   T
  1.4999438300268897  4.4100800455020828 15.9013054717441840   T   T   T
  4.3801628973092219  4.4100800455020828 15.9013054717441840   T   T   T
  7.3501334091701374  4.4100800455020828 15.8430608479148294   T   T   T
  1.4861781018724070  7.3198654192973658 15.8900063619189051   T   T   T
  4.3939286254637038  7.3198654192973658 15.8900063619189051   T   T   T
  7.3501334091701374  7.3664344653762752 15.8304592137235414   T   T   T
 -0.0166553432904880  0.0000000000000000 17.9726556368590060   T   T   T
  2.9400533636680550  0.0000000000000000 17.9309758431336945   T   T   T
  5.8967620706265986  0.0000000000000000 17.9726556368590060   T   T   T
 -0.0440919790491757  2.9265690273868161 17.9444154693958495   T   T   T
  2.9400533636680550  2.7570320077039754 18.1604709162725584   T   T   T
  5.9241987063852859  2.9265690273868161 17.9444154693958495   T   T   T
 -0.0440919790491757  5.8935910636173503 17.9444154693958495   T   T   T
  2.9400533636680550  6.0631280833001888 18.1604709162725584   T   T   T
  5.9241987063852859  5.8935910636173503 17.9444154693958495   T   T   T
  2.9400533636680550  4.4100800455020828 19.5653648767211763   T   T   T
  2.1118300027671677  4.4100800455020828 20.1637637157296545   T   T   T
  3.7682767245689424  4.4100800455020828 20.1637637157296545   T   T   T
