Pt  O  N 
 1.0000000000000000
    11.2211673782643580    0.0000000000000000    0.0000000000000000
     5.6105836891321790    9.7178160096941610    0.0000000000000000
     0.0000000000000000    0.0000000000000000   21.8715335987779369
 Pt  O   N  
  64   3   1
Selective dynamics
Cartesian
  0.0000000000000000  0.0000000000000000  7.4999999999999991   F   F   F
  2.8052918445660895  0.0000000000000000  7.4999999999999991   F   F   F
  5.6105836891321790  0.0000000000000000  7.4999999999999991   F   F   F
  8.4158755336982694  0.0000000000000000  7.4999999999999991   F   F   F
  1.4026459222830447  2.4294540024235403  7.4999999999999991   F   F   F
  4.2079377668491347  2.4294540024235403  7.4999999999999991   F   F   F
  7.0132296114152233  2.4294540024235403  7.4999999999999991   F   F   F
  9.8185214559813137  2.4294540024235403  7.4999999999999991   F   F   F
  2.8052918445660895  4.8589080048470805  7.4999999999999991   F   F   F
  5.6105836891321790  4.8589080048470805  7.4999999999999991   F   F   F
  8.4158755336982694  4.8589080048470805  7.4999999999999991   F   F   F
 11.2211673782643580  4.8589080048470805  7.4999999999999991   F   F   F
  4.2079377668491347  7.2883620072706208  7.4999999999999991   F   F   F
  7.0132296114152242  7.2883620072706208  7.4999999999999991   F   F   F
  9.8185214559813137  7.2883620072706208  7.4999999999999991   F   F   F
 12.6238133005474040  7.2883620072706208  7.4999999999999991   F   F   F
  1.4026459222830447  0.8098180008078467  9.7905111995926450   F   F   F
  4.2079377668491338  0.8098180008078467  9.7905111995926450   F   F   F
  7.0132296114152242  0.8098180008078467  9.7905111995926450   F   F   F
  9.8185214559813137  0.8098180008078467  9.7905111995926450   F   F   F
  2.8052918445660895  3.2392720032313869  9.7905111995926450   F   F   F
  5.6105836891321790  3.2392720032313869  9.7905111995926450   F   F   F
  8.4158755336982694  3.2392720032313869  9.7905111995926450   F   F   F
 11.2211673782643580  3.2392720032313869  9.7905111995926450   F   F   F
  4.2079377668491347  5.6687260056549276  9.7905111995926450   F   F   F
  7.0132296114152233  5.6687260056549276  9.7905111995926450   F   F   F
  9.8185214559813137  5.6687260056549276  9.7905111995926450   F   F   F
 12.6238133005474040  5.6687260056549276  9.7905111995926450   F   F   F
  5.6105836891321790  8.0981800080784687  9.7905111995926450   F   F   F
  8.4158755336982694  8.0981800080784687  9.7905111995926450   F   F   F
 11.2211673782643580  8.0981800080784687  9.7905111995926450   F   F   F
 14.0264592228304483  8.0981800080784687  9.7905111995926450   F   F   F
  0.0097601650155173  1.6140695033259485 12.0582258337036130   T   T   T
  2.8146352527179466  1.6102682164398539 12.0762136022923396   T   T   T
  5.6345226302622784  1.6381215682380097 12.1313733005359943   T   T   T
  8.4062133316978453  1.6239203399837905 12.1020298894148990   T   T   T
  1.4007723844312272  4.0409524979014337 12.0717442089497169   T   T   T
  4.1970842043869538  4.0466923102257404 12.0683692504294147   T   T   T
  7.0124223694397481  4.0496510272259725 12.0965811390799427   T   T   T
  9.8100426402907086  4.0554382421964545 12.1021570867675941   T   T   T
  2.8010433816875100  6.4809766056166440 12.0773250729439354   T   T   T
  5.6072576742518727  6.4891548266015171 12.0683139992296020   T   T   T
  8.4119086119508921  6.4486372054829459 12.1313325385501223   T   T   T
 11.2175977421276620  6.4820788733254000 12.0796704096244678   T   T   T
  4.2140642898346581  8.9138005482682843 12.0716600513710777   T   T   T
  7.0260705055132133  8.9047513630365636 12.0761359070659964   T   T   T
  9.8199818076234227  8.9072836984357266 12.0727873704785349   T   T   T
 12.6189384088311201  8.9094147425817560 12.0796382973999119   T   T   T
  0.0064898971112872 -0.0039926680800012 14.4090840568051046   T   T   T
  2.8072122240582496 -0.0009217891898606 14.4225765494725007   T   T   T
  5.5995667445107955 -0.0134696222492202 14.4119866134787156   T   T   T
  8.4222922753413112 -0.0189865464478906 14.3948371457438089   T   T   T
  1.4095242041542191  2.4259856656856478 14.4091070764867979   T   T   T
  4.1741165054304883  2.4325074571647152 14.4081475742935865   T   T   T
  7.0041559802649722  2.4333425944141380 14.4835096155992620   T   T   T
  9.8707930971857678  2.3994301438147363 14.3614401164763628   T   T   T
  2.7916127574420657  4.8667641185897663 14.4098915141148893   T   T   T
  5.5572040863683529  4.8897403770466061 14.3616430950343847   T   T   T
  8.4081344877657624  4.8648166210130848 14.4838338548008068   T   T   T
 11.2409840241183421  4.8629264907413869 14.3948039383239905   T   T   T
  4.1942793859237213  7.2963430371473654 14.4098997913421023   T   T   T
  6.9938048231951626  7.3161992955979240 14.4079936875342369   T   T   T
  9.8248364232258414  7.3047911638713794 14.4118811650171281   T   T   T
 12.6178191952520820  7.2918717102800654 14.4179926914022900   T   T   T
  7.1568444153307276  2.6405539766583113 16.6332381921152930   T   T   T
  8.3047483722909625  4.6304917506564856 16.6324590661127374   T   T   T
  7.7116675325295683  3.6470397827018850 18.4916198708861721   T   T   T
  7.7224120968414365  3.6399899919129179 17.2630823693308848   T   T   T
