Ir  O  N 
 1.0000000000000000
    10.9538490905188866    0.0000000000000000    0.0000000000000000
     5.4769245452594433    9.4863115816104226    0.0000000000000000
     0.0000000000000000    0.0000000000000000   21.7078352478052139
 Ir  O   N  
  64   3   1
Selective dynamics
Cartesian
  0.0000000000000000  0.0000000000000000  7.4999999999999991   F   F   F
  2.7384622726297216  0.0000000000000000  7.4999999999999991   F   F   F
  5.4769245452594433  0.0000000000000000  7.4999999999999991   F   F   F
  8.2153868178891649  0.0000000000000000  7.4999999999999991   F   F   F
  1.3692311363148608  2.3715778954026057  7.4999999999999991   F   F   F
  4.1076934089445825  2.3715778954026057  7.4999999999999991   F   F   F
  6.8461556815743041  2.3715778954026057  7.4999999999999991   F   F   F
  9.5846179542040257  2.3715778954026057  7.4999999999999991   F   F   F
  2.7384622726297216  4.7431557908052113  7.4999999999999991   F   F   F
  5.4769245452594433  4.7431557908052113  7.4999999999999991   F   F   F
  8.2153868178891649  4.7431557908052113  7.4999999999999991   F   F   F
 10.9538490905188866  4.7431557908052113  7.4999999999999991   F   F   F
  4.1076934089445825  7.1147336862078170  7.4999999999999991   F   F   F
  6.8461556815743041  7.1147336862078170  7.4999999999999991   F   F   F
  9.5846179542040257  7.1147336862078170  7.4999999999999991   F   F   F
 12.3230802268337474  7.1147336862078170  7.4999999999999991   F   F   F
  1.3692311363148608  0.7905259651342018  9.7359450826017380   F   F   F
  4.1076934089445825  0.7905259651342018  9.7359450826017380   F   F   F
  6.8461556815743041  0.7905259651342018  9.7359450826017380   F   F   F
  9.5846179542040257  0.7905259651342018  9.7359450826017380   F   F   F
  2.7384622726297216  3.1621038605368073  9.7359450826017380   F   F   F
  5.4769245452594433  3.1621038605368073  9.7359450826017380   F   F   F
  8.2153868178891649  3.1621038605368073  9.7359450826017380   F   F   F
 10.9538490905188866  3.1621038605368073  9.7359450826017380   F   F   F
  4.1076934089445825  5.5336817559394138  9.7359450826017380   F   F   F
  6.8461556815743041  5.5336817559394138  9.7359450826017380   F   F   F
  9.5846179542040257  5.5336817559394138  9.7359450826017380   F   F   F
 12.3230802268337474  5.5336817559394138  9.7359450826017380   F   F   F
  5.4769245452594433  7.9052596513420195  9.7359450826017380   F   F   F
  8.2153868178891649  7.9052596513420195  9.7359450826017380   F   F   F
 10.9538490905188866  7.9052596513420195  9.7359450826017380   F   F   F
 13.6923113631486082  7.9052596513420195  9.7359450826017380   F   F   F
 -0.0004364242413483  1.5813525492652007 11.9326017961703901   T   T   T
  2.7440431317437235  1.5781178755785028 11.9394391036651939   T   T   T
  5.4958968789570477  1.5915837013380996 11.9791648675454443   T   T   T
  8.2042318297911461  1.5908323398162851 11.9674877040245846   T   T   T
  1.3665462532427897  3.9514842532447632 11.9422243385998996   T   T   T
  4.1082111114848736  3.9501137095381580 11.9390066188346786   T   T   T
  6.8442591012085296  3.9538468299141356 11.9674709773090875   T   T   T
  9.5706153523207966  3.9575415956208357 11.9675114683103327   T   T   T
  2.7371602265467954  6.3249615440826625 11.9443454491523369   T   T   T
  5.4794518464174695  6.3250735642291946 11.9390072946160064   T   T   T
  8.2157972450812213  6.3025789525333220 11.9791617425801604   T   T   T
 10.9504734934253047  6.3228727164088161 11.9485082365384354   T   T   T
  4.1074335566837457  8.6986970368239778 11.9422661716803766   T   T   T
  6.8515289853329291  8.6924229757758429 11.9394275411544584   T   T   T
  9.5870197575989238  8.6943724827054432 11.9426403971575574   T   T   T
 12.3225579742042139  8.6993415077102316 11.9485362898048457   T   T   T
  0.0066119441057762 -0.0035256754773746 14.1504847282539359   T   T   T
  2.7400363539706749 -0.0009468754273304 14.1529203916544262   T   T   T
  5.4722102423480692 -0.0138621981851692 14.1531563480190723   T   T   T
  8.2223163192447384 -0.0173035583514594 14.1500161740424542   T   T   T
  1.3755690674936349  2.3677304174076284 14.1504952748967945   T   T   T
  4.0899825737972630  2.3743538106705775 14.1497165797034867   T   T   T
  6.8536339750593829  2.3758780329473312 14.2259653975559726   T   T   T
  9.6293220714840579  2.3459038607244400 14.1362308476013023   T   T   T
  2.7327961305379902  4.7428236010129048 14.1513468376680045   T   T   T
  5.4311580542883897  4.7697287203959950 14.1351208359875322   T   T   T
  8.2156157553896616  4.7348874322370058 14.2254066680219715   T   T   T
 10.9722645012022220  4.7459359716636049 14.1500379905394933   T   T   T
  4.1052599100430553  7.1198472733852896 14.1513517849781643   T   T   T
  6.8350077251876975  7.1287208254820058 14.1497156309820582   T   T   T
  9.5942442751090660  7.1257031062010849 14.1531490528471942   T   T   T
 12.3230486428043857  7.1147226256467571 14.1551271051559695   T   T   T
  6.9646396107089172  2.5591500196489054 16.3687088135696825   T   T   T
  8.1126052680750718  4.5480146887043036 16.3684596733107632   T   T   T
  7.5253642016324855  3.5617979280854102 18.2355203946486242   T   T   T
  7.5330892918839156  3.5568274855865516 17.0092597579073832   T   T   T
