Ag  O  N 
 1.0000000000000000
    11.7283536979856873    0.0000000000000000    0.0000000000000000
     5.8641768489928436   10.1570522470247671    0.0000000000000000
     0.0000000000000000    0.0000000000000000   22.1821205207372749
 Ag  O   N  
  64   3   1
Selective dynamics
Cartesian
  0.0000000000000000  0.0000000000000000  7.5000000000000000   F   F   F
  2.9320884244964218  0.0000000000000000  7.5000000000000000   F   F   F
  5.8641768489928436  0.0000000000000000  7.5000000000000000   F   F   F
  8.7962652734892650  0.0000000000000000  7.5000000000000000   F   F   F
  1.4660442122482109  2.5392630617561918  7.5000000000000000   F   F   F
  4.3981326367446325  2.5392630617561918  7.5000000000000000   F   F   F
  7.3302210612410548  2.5392630617561918  7.5000000000000000   F   F   F
 10.2623094857374753  2.5392630617561918  7.5000000000000000   F   F   F
  2.9320884244964218  5.0785261235123835  7.5000000000000000   F   F   F
  5.8641768489928436  5.0785261235123835  7.5000000000000000   F   F   F
  8.7962652734892650  5.0785261235123835  7.5000000000000000   F   F   F
 11.7283536979856873  5.0785261235123835  7.5000000000000000   F   F   F
  4.3981326367446325  7.6177891852685757  7.5000000000000000   F   F   F
  7.3302210612410548  7.6177891852685757  7.5000000000000000   F   F   F
 10.2623094857374753  7.6177891852685757  7.5000000000000000   F   F   F
 13.1943979102338975  7.6177891852685757  7.5000000000000000   F   F   F
  1.4660442122482109  0.8464210205853973  9.8940401735790910   F   F   F
  4.3981326367446325  0.8464210205853973  9.8940401735790910   F   F   F
  7.3302210612410548  0.8464210205853973  9.8940401735790910   F   F   F
 10.2623094857374770  0.8464210205853973  9.8940401735790910   F   F   F
  2.9320884244964218  3.3856840823415890  9.8940401735790910   F   F   F
  5.8641768489928436  3.3856840823415890  9.8940401735790910   F   F   F
  8.7962652734892650  3.3856840823415890  9.8940401735790910   F   F   F
 11.7283536979856891  3.3856840823415890  9.8940401735790910   F   F   F
  4.3981326367446325  5.9249471440977812  9.8940401735790910   F   F   F
  7.3302210612410548  5.9249471440977812  9.8940401735790910   F   F   F
 10.2623094857374770  5.9249471440977812  9.8940401735790910   F   F   F
 13.1943979102338993  5.9249471440977812  9.8940401735790910   F   F   F
  5.8641768489928445  8.4642102058539734  9.8940401735790910   F   F   F
  8.7962652734892650  8.4642102058539734  9.8940401735790910   F   F   F
 11.7283536979856891  8.4642102058539734  9.8940401735790910   F   F   F
 14.6604421224821095  8.4642102058539734  9.8940401735790910   F   F   F
  0.0038361599387836  1.6906184675262383 12.2943640569946115   T   T   T
  2.9346636548025811  1.6891190789430930 12.3000902074806859   T   T   T
  5.8795935231326100  1.7030665228625386 12.3357278604419207   T   T   T
  8.7851515962454361  1.7018700266121354 12.3284013641896522   T   T   T
  1.4660723755912914  4.2297889000362634 12.3012678850050712   T   T   T
  4.3953540703508516  4.2293894262981171 12.2992263549276650   T   T   T
  7.3374106127127758  4.2280028662510976 12.3421162808973826   T   T   T
 10.2489045620592005  4.2372170622205285 12.3283909557718232   T   T   T
  2.9300229052070947  6.7725465814893662 12.3067017793506608   T   T   T
  5.8651225734374739  6.7751102156757828 12.2992370667856363   T   T   T
  8.7951213641840553  6.7529201780990391 12.3356722473631297   T   T   T
 11.7284287750174023  6.7710685671529633 12.3051686770951711   T   T   T
  4.4001128709078108  9.3117280833690170 12.3012828491264745   T   T   T
  7.3347325668900618  9.3102447952384662 12.3000842396089336   T   T   T
 10.2619815355616257  9.3108182387530558 12.2969793976786725   T   T   T
 13.1946820409000214  9.3106823020111467 12.3051736974100674   T   T   T
  0.0064575783924933 -0.0039906507963318 14.7474732051305892   T   T   T
  2.9323859200885978 -0.0001750036397336 14.7471279006331670   T   T   T
  5.8592488417935371 -0.0079500327321698 14.7381373400184810   T   T   T
  8.8006004282860424 -0.0164287579465099 14.7343461717835851   T   T   T
  1.4727239867281163  2.5356527823468191 14.7474776386176867   T   T   T
  4.3808858536907644  2.5393720190731450 14.7350146682243981   T   T   T
  7.3308180737768627  2.5400715295468803 14.8064224383708769   T   T   T
 10.2980969449309399  2.5185805382301374 14.7119010125064698   T   T   T
  2.9223060939711747  5.0812352329030519 14.7520958623966951   T   T   T
  5.8245143894545892  5.1013670292203734 14.7088110102762055   T   T   T
  8.7959750706017150  5.0776818178312491 14.8060066025634907   T   T   T
 11.7448485390382054  5.0829680707200708 14.7342637635563314   T   T   T
  4.3908674782395423  7.6248873008061269 14.7520727959622509   T   T   T
  7.3214587425000293  7.6327519284642742 14.7348917768463856   T   T   T
 10.2668289006752236  7.6261713540753231 14.7379895918930632   T   T   T
 13.1952379212257149  7.6173109469825588 14.7526674606830479   T   T   T
  7.5035763372937154  2.8328610945551858 17.1595752089763423   T   T   T
  8.6283767983233517  4.7843610457729548 17.1610313200897195   T   T   T
  8.0628112148387725  3.8116153785446172 19.0487493053565977   T   T   T
  8.0640349072952908  3.8098314562928897 17.8075830915169213   T   T   T
