Cu  O  N 
 1.0000000000000000
    10.2829783810003317    0.0000000000000000    0.0000000000000000
     5.1414891905001658    8.9053205045124635    0.0000000000000000
     0.0000000000000000    0.0000000000000000   21.2970125173803737
 Cu  O   N  
  64   3   1
Selective dynamics
Cartesian
  0.0000000000000000  0.0000000000000000  7.5000000000000009   F   F   F
  2.5707445952500829  0.0000000000000000  7.5000000000000009   F   F   F
  5.1414891905001658  0.0000000000000000  7.5000000000000009   F   F   F
  7.7122337857502483  0.0000000000000000  7.5000000000000009   F   F   F
  1.2853722976250415  2.2263301261281159  7.5000000000000009   F   F   F
  3.8561168928751242  2.2263301261281159  7.5000000000000009   F   F   F
  6.4268614881252075  2.2263301261281159  7.5000000000000009   F   F   F
  8.9976060833752900  2.2263301261281159  7.5000000000000009   F   F   F
  2.5707445952500829  4.4526602522562317  7.5000000000000009   F   F   F
  5.1414891905001658  4.4526602522562317  7.5000000000000009   F   F   F
  7.7122337857502483  4.4526602522562317  7.5000000000000009   F   F   F
 10.2829783810003317  4.4526602522562317  7.5000000000000009   F   F   F
  3.8561168928751242  6.6789903783843476  7.5000000000000009   F   F   F
  6.4268614881252075  6.6789903783843476  7.5000000000000009   F   F   F
  8.9976060833752900  6.6789903783843476  7.5000000000000009   F   F   F
 11.5683506786253734  6.6789903783843476  7.5000000000000009   F   F   F
  1.2853722976250415  0.7421100420427053  9.5990041724601252   F   F   F
  3.8561168928751242  0.7421100420427053  9.5990041724601252   F   F   F
  6.4268614881252075  0.7421100420427053  9.5990041724601252   F   F   F
  8.9976060833752900  0.7421100420427053  9.5990041724601252   F   F   F
  2.5707445952500829  2.9684401681708210  9.5990041724601252   F   F   F
  5.1414891905001658  2.9684401681708210  9.5990041724601252   F   F   F
  7.7122337857502492  2.9684401681708210  9.5990041724601252   F   F   F
 10.2829783810003317  2.9684401681708210  9.5990041724601252   F   F   F
  3.8561168928751246  5.1947702942989373  9.5990041724601252   F   F   F
  6.4268614881252075  5.1947702942989373  9.5990041724601252   F   F   F
  8.9976060833752900  5.1947702942989373  9.5990041724601252   F   F   F
 11.5683506786253734  5.1947702942989373  9.5990041724601252   F   F   F
  5.1414891905001658  7.4211004204270532  9.5990041724601252   F   F   F
  7.7122337857502483  7.4211004204270532  9.5990041724601252   F   F   F
 10.2829783810003317  7.4211004204270532  9.5990041724601252   F   F   F
 12.8537229762504150  7.4211004204270532  9.5990041724601252   F   F   F
  0.0012516481857383  1.4834971232236500 11.6914215882752703   T   T   T
  2.5755929634387131  1.4819743027946704 11.6964501489326125   T   T   T
  5.1622273153069127  1.4983416278226473 11.7415884080403004   T   T   T
  7.6966762108604403  1.4941872567881596 11.7329911094148880   T   T   T
  1.2834349933835933  3.7086901773621412 11.6975296765626240   T   T   T
  3.8571479520591296  3.7088905099775649 11.6950846537986397   T   T   T
  6.4414923386717229  3.7021032769635074 11.7648915939074890   T   T   T
  8.9811960034597220  3.7190398940517784 11.7329911094148880   T   T   T
  2.5698927090326604  5.9373721147788503 11.7017584675663464   T   T   T
  5.1434424583374527  5.9368167583116032 11.6950846537986397   T   T   T
  7.7103729732950823  5.9118597858251540 11.7415884080403004   T   T   T
 10.2816181704823428  5.9370170143622394 11.7018565242402932   T   T   T
  3.8567588513760787  8.1658185381110631 11.6975296765626240   T   T   T
  6.4312302282842024  8.1601344918409353 11.6964501489326125   T   T   T
  8.9973189603949031  8.1633764658228216 11.6952767197823917   T   T   T
 11.5675525523894187  8.1643205770446237 11.7018565242402932   T   T   T
  0.0055812576152333 -0.0030378186166389 13.8112364866611905   T   T   T
  2.5705099192732348  0.0001353410631621 13.8104257488219275   T   T   T
  5.1344702891877922 -0.0147790199886862 13.8063414502632060   T   T   T
  7.7177872952022399 -0.0190470825512510 13.8033364029381627   T   T   T
  1.2907940181581234  2.2230157400950494 13.8112364866611905   T   T   T
  3.8354355966706830  2.2281777756240704 13.8030439695659712   T   T   T
  6.4243630088262433  2.2202478296185242 13.9590250159542606   T   T   T
  9.0326359241875025  2.2061058440228618 13.7788698676504886   T   T   T
  2.5619340991405255  4.4547489917604297 13.8148672992906985   T   T   T
  5.0997823502214672  4.4767393041511054 13.7803036416636999   T   T   T
  7.7162519693487912  4.4578653026822321 13.9590250159542606   T   T   T
 10.3022502480534861  4.4573746611329907 13.8033364029381627   T   T   T
  3.8499023207603171  6.6855756782130769 13.8148672992906985   T   T   T
  6.4149207997203099  6.6959768001273732 13.8030439695659712   T   T   T
  9.0068957492927417  6.6924582728097830 13.8063414502632060   T   T   T
 11.5696240630591234  6.6782550306055279 13.8162423046865683   T   T   T
  6.5050212279491326  2.3611535428059276 16.0347033277748849   T   T   T
  7.6345527691485593  4.3175602313926111 16.0347033277748849   T   T   T
  7.0687628235407791  3.3399480145921094 17.9236868138950456   T   T   T
  7.0692827498080071  3.3396481029472289 16.6904596377434551   T   T   T
