Pd  O  N 
 1.0000000000000000
    11.1449118996936107    0.0000000000000000    0.0000000000000000
     5.5724559498468054    9.6517768280741532    0.0000000000000000
     0.0000000000000000    0.0000000000000000   21.8248368456304220
 Pd  O   N  
  64   3   1
Selective dynamics
Cartesian
  0.0000000000000000  0.0000000000000000  7.5000000000000000   F   F   F
  2.7862279749234027  0.0000000000000000  7.5000000000000000   F   F   F
  5.5724559498468054  0.0000000000000000  7.5000000000000000   F   F   F
  8.3586839247702081  0.0000000000000000  7.5000000000000000   F   F   F
  1.3931139874617013  2.4129442070185383  7.5000000000000000   F   F   F
  4.1793419623851040  2.4129442070185383  7.5000000000000000   F   F   F
  6.9655699373085067  2.4129442070185383  7.5000000000000000   F   F   F
  9.7517979122319094  2.4129442070185383  7.5000000000000000   F   F   F
  2.7862279749234027  4.8258884140370766  7.5000000000000000   F   F   F
  5.5724559498468054  4.8258884140370766  7.5000000000000000   F   F   F
  8.3586839247702081  4.8258884140370766  7.5000000000000000   F   F   F
 11.1449118996936107  4.8258884140370766  7.5000000000000000   F   F   F
  4.1793419623851040  7.2388326210556144  7.5000000000000000   F   F   F
  6.9655699373085067  7.2388326210556144  7.5000000000000000   F   F   F
  9.7517979122319094  7.2388326210556144  7.5000000000000000   F   F   F
 12.5380258871553121  7.2388326210556144  7.5000000000000000   F   F   F
  1.3931139874617013  0.8043147356728461  9.7749456152101395   F   F   F
  4.1793419623851040  0.8043147356728461  9.7749456152101395   F   F   F
  6.9655699373085067  0.8043147356728461  9.7749456152101395   F   F   F
  9.7517979122319094  0.8043147356728461  9.7749456152101395   F   F   F
  2.7862279749234027  3.2172589426913842  9.7749456152101395   F   F   F
  5.5724559498468054  3.2172589426913842  9.7749456152101395   F   F   F
  8.3586839247702081  3.2172589426913842  9.7749456152101395   F   F   F
 11.1449118996936107  3.2172589426913842  9.7749456152101395   F   F   F
  4.1793419623851040  5.6302031497099234  9.7749456152101395   F   F   F
  6.9655699373085067  5.6302031497099234  9.7749456152101395   F   F   F
  9.7517979122319094  5.6302031497099234  9.7749456152101395   F   F   F
 12.5380258871553121  5.6302031497099234  9.7749456152101395   F   F   F
  5.5724559498468054  8.0431473567284613  9.7749456152101395   F   F   F
  8.3586839247702081  8.0431473567284613  9.7749456152101395   F   F   F
 11.1449118996936107  8.0431473567284613  9.7749456152101395   F   F   F
 13.9311398746170134  8.0431473567284613  9.7749456152101395   F   F   F
 -0.0001899785867940  1.6087443951042415 12.0613833020054297   T   T   T
  2.7931194502345185  1.6048512715171079 12.0696633660352628   T   T   T
  5.5898389063094731  1.6194151902471763 12.1175437630859530   T   T   T
  8.3503604038896988  1.6144563045451119 12.1006482584364061   T   T   T
  1.3897794910495165  4.0199591227096922 12.0662095742336835   T   T   T
  4.1758679934315888  4.0200977407992129 12.0656859025184851   T   T   T
  6.9662878663239383  4.0211612754796837 12.0988173321638985   T   T   T
  9.7425971314461552  4.0258638127992681 12.1006518373713874   T   T   T
  2.7840677734728692  6.4357519593485089 12.0641848821994522   T   T   T
  5.5720068314067293  6.4382568971628800 12.0656820253389157   T   T   T
  8.3580332149695700  6.4140702326323371 12.1175467455317705   T   T   T
 11.1426715529682880  6.4341676597928412 12.0720441257013480   T   T   T
  4.1790719712323723  8.8511587587777516 12.0661883988683769   T   T   T
  6.9722888526427935  8.8433800894716601 12.0696494976622013   T   T   T
  9.7580284982355696  8.8438583444299574 12.0743362002965480   T   T   T
 12.5372053902847398  8.8495722076792447 12.0720409941332445   T   T   T
  0.0074464281969334 -0.0061356337338080 14.3865936380778834   T   T   T
  2.7901325087133171 -0.0022535274127157 14.3958976706594495   T   T   T
  5.5671222710161183 -0.0086723967434125 14.4020110937868466   T   T   T
  8.3685287085537894 -0.0157423324220219 14.3907473625803242   T   T   T
  1.4021472814880742  2.4095635415942871 14.3866121292419464   T   T   T
  4.1565353396080447  2.4111908316657811 14.3967503979082352   T   T   T
  6.9679415564961520  2.4205164249739122 14.4853187461798019   T   T   T
  9.7999690908492330  2.3851366137460102 14.3764868661995280   T   T   T
  2.7787594580984600  4.8314844633485432 14.3871103528277562   T   T   T
  5.5348933544876004  4.8475664116846726 14.3651155400755091   T   T   T
  8.3533097615820235  4.8200436811430265 14.4853071146411221   T   T   T
 11.1634694829435386  4.8252252406152571 14.3907382661205840   T   T   T
  4.1707545412877334  7.2425026068718950 14.3871239229562313   T   T   T
  6.9556877770444094  7.2594598991577133 14.3967390646141311   T   T   T
  9.7566444689740646  7.2477868771486236 14.4020099008085101   T   T   T
 12.5348629089756933  7.2406552304312699 14.3920670766347829   T   T   T
  7.0977173481986231  2.6318242798406928 16.6422381119173224   T   T   T
  8.2351869422004533  4.6020183816563742 16.6422339364931702   T   T   T
  7.6622580899696748  3.6193374774128930 18.5128695471536098   T   T   T
  7.6654433292200892  3.6175018584636014 17.2795156893077113   T   T   T
