Au  O  N 
 1.0000000000000000
    11.7602134546722201    0.0000000000000000    0.0000000000000000
     5.8801067273361101   10.1846436056736955    0.0000000000000000
     0.0000000000000000    0.0000000000000000   22.2016305575400814
 Au  O   N  
  64   3   1
Selective dynamics
Cartesian
  0.0000000000000000  0.0000000000000000  7.5000000000000000   F   F   F
  2.9400533636680550  0.0000000000000000  7.5000000000000000   F   F   F
  5.8801067273361101  0.0000000000000000  7.5000000000000000   F   F   F
  8.8201600910041655  0.0000000000000000  7.5000000000000000   F   F   F
  1.4700266818340275  2.5461609014184239  7.5000000000000000   F   F   F
  4.4100800455020828  2.5461609014184239  7.5000000000000000   F   F   F
  7.3501334091701374  2.5461609014184239  7.5000000000000000   F   F   F
 10.2901867728381937  2.5461609014184239  7.5000000000000000   F   F   F
  2.9400533636680550  5.0923218028368478  7.5000000000000000   F   F   F
  5.8801067273361101  5.0923218028368478  7.5000000000000000   F   F   F
  8.8201600910041655  5.0923218028368478  7.5000000000000000   F   F   F
 11.7602134546722201  5.0923218028368478  7.5000000000000000   F   F   F
  4.4100800455020828  7.6384827042552716  7.5000000000000000   F   F   F
  7.3501334091701374  7.6384827042552716  7.5000000000000000   F   F   F
 10.2901867728381937  7.6384827042552716  7.5000000000000000   F   F   F
 13.2302401365062483  7.6384827042552716  7.5000000000000000   F   F   F
  1.4700266818340275  0.8487203004728079  9.9005435191800277   F   F   F
  4.4100800455020828  0.8487203004728079  9.9005435191800277   F   F   F
  7.3501334091701382  0.8487203004728079  9.9005435191800277   F   F   F
 10.2901867728381937  0.8487203004728079  9.9005435191800277   F   F   F
  2.9400533636680550  3.3948812018912315  9.9005435191800277   F   F   F
  5.8801067273361101  3.3948812018912315  9.9005435191800277   F   F   F
  8.8201600910041655  3.3948812018912315  9.9005435191800277   F   F   F
 11.7602134546722219  3.3948812018912315  9.9005435191800277   F   F   F
  4.4100800455020828  5.9410421033096563  9.9005435191800277   F   F   F
  7.3501334091701374  5.9410421033096563  9.9005435191800277   F   F   F
 10.2901867728381937  5.9410421033096563  9.9005435191800277   F   F   F
 13.2302401365062483  5.9410421033096563  9.9005435191800277   F   F   F
  5.8801067273361109  8.4872030047280802  9.9005435191800277   F   F   F
  8.8201600910041655  8.4872030047280802  9.9005435191800277   F   F   F
 11.7602134546722219  8.4872030047280802  9.9005435191800277   F   F   F
 14.7002668183402765  8.4872030047280802  9.9005435191800277   F   F   F
  0.0111971431044307  1.6910155189461578 12.3000794467655670   T   T   T
  2.9457676378290931  1.6894658965745430 12.3152384641636772   T   T   T
  5.8936245272983108  1.7083048852213736 12.3496174811747199   T   T   T
  8.8134339107696036  1.7031070808407938 12.3375576556409250   T   T   T
  1.4684420789623025  4.2369222550226784 12.3132257449136269   T   T   T
  4.3975947665133406  4.2418181177430467 12.3052129385777196   T   T   T
  7.3481681305694009  4.2449085657494505 12.3465795799280080   T   T   T
 10.2818605217865855  4.2467351457487181 12.3377645690787059   T   T   T
  2.9354204195707352  6.7924183799279900 12.3221439654221090   T   T   T
  5.8754329771862235  6.8015266773008989 12.3052093648714624   T   T   T
  8.8175742385747142  6.7726048813536819 12.3497961128335092   T   T   T
 11.7623110079589335  6.7904187698711604 12.3150548745798112   T   T   T
  4.4151228179985766  9.3405881369410757 12.3131883670325788   T   T   T
  7.3599409039579484  9.3349427462223566 12.3152249143746655   T   T   T
 10.2896592255246269  9.3361878614845839 12.3069273949877953   T   T   T
 13.2307035693929063  9.3337541548236587 12.3150181610380169   T   T   T
  0.0114194531716601 -0.0069641701887145 14.8039479607538418   T   T   T
  2.9432965192217626 -0.0019225033214821 14.8057693233821350   T   T   T
  5.8722808872073982 -0.0130275806919305 14.7810380819841232   T   T   T
  8.8267470429338548 -0.0228214991480391 14.7750974980180754   T   T   T
  1.4817317776350334  2.5398256205063636 14.8039732941769433   T   T   T
  4.3824962260009919  2.5514420218212335 14.7811470598158223   T   T   T
  7.3461783958608793  2.5421537530004290 14.7941398598451350   T   T   T
 10.3464579697280197  2.5137943976959387 14.7403063957001574   T   T   T
  2.9203431004513716  5.0979926031713765 14.8032761638450321   T   T   T
  5.8144169946880817  5.1303148258051703 14.7326596349536505   T   T   T
  8.8218310712968506  5.0979742488774820 14.7941519045881265   T   T   T
 11.7832898402689370  5.0980983203439560 14.7753127094970882   T   T   T
  4.3954090640721146  7.6526950809144587 14.8032544833125090   T   T   T
  7.3318630316816193  7.6598121029929658 14.7811718337478730   T   T   T
 10.2975413287642308  7.6517702276473498 14.7811421970899239   T   T   T
 13.2268871104441192  7.6403436182162210 14.8025946911372941   T   T   T
  7.5239348783328897  2.8372635492875253 17.1751431693599272   T   T   T
  8.6551021799271997  4.7988064985049999 17.1752030181810689   T   T   T
  8.0819502078619259  3.8227039080302228 19.0525616992070823   T   T   T
  8.0859518283533216  3.8197400253920017 17.8130426854512578   T   T   T
