Cu  N  O  H 
 1.0000000000000000
    10.2829783810003317    0.0000000000000000    0.0000000000000000
     5.1414891905001658    8.9053205045124635    0.0000000000000000
     0.0000000000000000    0.0000000000000000   21.2970125173803737
 Cu  N   O   H  
  64   1   1   1
Selective dynamics
Cartesian
  0.0000000000000000  0.0000000000000000  7.5000000000000009   F   F   F
  2.5707445952500829  0.0000000000000000  7.5000000000000009   F   F   F
  5.1414891905001658  0.0000000000000000  7.5000000000000009   F   F   F
  7.7122337857502483  0.0000000000000000  7.5000000000000009   F   F   F
  1.2853722976250415  2.2263301261281159  7.5000000000000009   F   F   F
  3.8561168928751242  2.2263301261281159  7.5000000000000009   F   F   F
  6.4268614881252075  2.2263301261281159  7.5000000000000009   F   F   F
  8.9976060833752900  2.2263301261281159  7.5000000000000009   F   F   F
  2.5707445952500829  4.4526602522562317  7.5000000000000009   F   F   F
  5.1414891905001658  4.4526602522562317  7.5000000000000009   F   F   F
  7.7122337857502483  4.4526602522562317  7.5000000000000009   F   F   F
 10.2829783810003317  4.4526602522562317  7.5000000000000009   F   F   F
  3.8561168928751242  6.6789903783843476  7.5000000000000009   F   F   F
  6.4268614881252075  6.6789903783843476  7.5000000000000009   F   F   F
  8.9976060833752900  6.6789903783843476  7.5000000000000009   F   F   F
 11.5683506786253734  6.6789903783843476  7.5000000000000009   F   F   F
  1.2853722976250415  0.7421100420427053  9.5990041724601252   F   F   F
  3.8561168928751242  0.7421100420427053  9.5990041724601252   F   F   F
  6.4268614881252075  0.7421100420427053  9.5990041724601252   F   F   F
  8.9976060833752900  0.7421100420427053  9.5990041724601252   F   F   F
  2.5707445952500829  2.9684401681708210  9.5990041724601252   F   F   F
  5.1414891905001658  2.9684401681708210  9.5990041724601252   F   F   F
  7.7122337857502492  2.9684401681708210  9.5990041724601252   F   F   F
 10.2829783810003317  2.9684401681708210  9.5990041724601252   F   F   F
  3.8561168928751246  5.1947702942989373  9.5990041724601252   F   F   F
  6.4268614881252075  5.1947702942989373  9.5990041724601252   F   F   F
  8.9976060833752900  5.1947702942989373  9.5990041724601252   F   F   F
 11.5683506786253734  5.1947702942989373  9.5990041724601252   F   F   F
  5.1414891905001658  7.4211004204270532  9.5990041724601252   F   F   F
  7.7122337857502483  7.4211004204270532  9.5990041724601252   F   F   F
 10.2829783810003317  7.4211004204270532  9.5990041724601252   F   F   F
 12.8537229762504150  7.4211004204270532  9.5990041724601252   F   F   F
  0.0098564705186214  1.4871657245422980 11.6899007925033942   T   T   T
  2.5816685745272250  1.4890715601011761 11.6980013170983188   T   T   T
  5.1690920415484145  1.5077537370143417 11.7423576651211032   T   T   T
  7.7076041401593036  1.5015382609463288 11.7153448235546449   T   T   T
  1.2868322514078847  3.7133072260700462 11.6973219878596986   T   T   T
  3.8729997799177642  3.7278870275036531 11.7331274140412738   T   T   T
  6.4243483286287679  3.7208093056525291 11.7589468547680980   T   T   T
  8.9880116391613232  3.7184093338942481 11.7162904964501813   T   T   T
  2.5727639927038557  5.9449704800790570 11.7089440394462692   T   T   T
  5.1433402172364611  5.9276810966128002 11.7348947633772163   T   T   T
  7.7126749726670942  5.9124861950360188 11.7450468005178674   T   T   T
 10.2832604626116204  5.9419743594690067 11.7047193597985508   T   T   T
  3.8604252589864032  8.1746718636548561 11.6959402287445364   T   T   T
  6.4342873544576538  8.1631454518868587 11.6982070582113362   T   T   T
  9.0006659149913819  8.1677712083741554 11.7010756350242353   T   T   T
 11.5690652212268095  8.1707202605179461 11.7029429849658673   T   T   T
  0.0196442791322610  0.0065913337705769 13.8178836297411571   T   T   T
  2.5825096927485447  0.0077554608993875 13.8226279577713793   T   T   T
  5.1460663273683487  0.0034951165723953 13.8201218976868638   T   T   T
  7.7224022094991494 -0.0018146817365919 13.8152812026641687   T   T   T
  1.3041208955247541  2.2289413354538112 13.8189090848715033   T   T   T
  3.8398965901899684  2.2232173829341826 13.7992463574453499   T   T   T
  6.4723537213065212  2.1858144539295337 13.9242902609333061   T   T   T
  9.0703574609789843  2.1990048228288361 13.7744355040120539   T   T   T
  2.5300814049169684  4.4733665870684867 13.8109339549384789   T   T   T
  5.0393557014193320  4.5279556773375900 13.9170295177811365   T   T   T
  7.7814005997441491  4.4532523025469599 13.9292628330815411   T   T   T
 10.3030014509143886  4.4644997245892428 13.8189543999079696   T   T   T
  3.8308498840121463  6.7303403243376065 13.8112959098532482   T   T   T
  6.4347243541281740  6.7174407748616414 13.8036834124204102   T   T   T
  9.0096820393006603  6.6919292378730262 13.8229883031345313   T   T   T
 11.5640111746661045  6.6959787845880756 13.8198128830123448   T   T   T
  6.8852880770729818  3.4561392311102517 15.4436255396004292   T   T   T
  5.7210331303145567  4.1216931977691917 15.7627957961396241   T   T   T
  7.3540626654826093  3.1846303859454941 16.3210580980343849   T   T   T
