Ir  N  O  H 
 1.0000000000000000
    10.9538490905188866    0.0000000000000000    0.0000000000000000
     5.4769245452594433    9.4863115816104226    0.0000000000000000
     0.0000000000000000    0.0000000000000000   21.7078352478052139
 Ir  N   O   H  
  64   1   1   1
Selective dynamics
Cartesian
  0.0000000000000000  0.0000000000000000  7.4999999999999991   F   F   F
  2.7384622726297216  0.0000000000000000  7.4999999999999991   F   F   F
  5.4769245452594433  0.0000000000000000  7.4999999999999991   F   F   F
  8.2153868178891649  0.0000000000000000  7.4999999999999991   F   F   F
  1.3692311363148608  2.3715778954026057  7.4999999999999991   F   F   F
  4.1076934089445825  2.3715778954026057  7.4999999999999991   F   F   F
  6.8461556815743041  2.3715778954026057  7.4999999999999991   F   F   F
  9.5846179542040257  2.3715778954026057  7.4999999999999991   F   F   F
  2.7384622726297216  4.7431557908052113  7.4999999999999991   F   F   F
  5.4769245452594433  4.7431557908052113  7.4999999999999991   F   F   F
  8.2153868178891649  4.7431557908052113  7.4999999999999991   F   F   F
 10.9538490905188866  4.7431557908052113  7.4999999999999991   F   F   F
  4.1076934089445825  7.1147336862078170  7.4999999999999991   F   F   F
  6.8461556815743041  7.1147336862078170  7.4999999999999991   F   F   F
  9.5846179542040257  7.1147336862078170  7.4999999999999991   F   F   F
 12.3230802268337474  7.1147336862078170  7.4999999999999991   F   F   F
  1.3692311363148608  0.7905259651342018  9.7359450826017380   F   F   F
  4.1076934089445825  0.7905259651342018  9.7359450826017380   F   F   F
  6.8461556815743041  0.7905259651342018  9.7359450826017380   F   F   F
  9.5846179542040257  0.7905259651342018  9.7359450826017380   F   F   F
  2.7384622726297216  3.1621038605368073  9.7359450826017380   F   F   F
  5.4769245452594433  3.1621038605368073  9.7359450826017380   F   F   F
  8.2153868178891649  3.1621038605368073  9.7359450826017380   F   F   F
 10.9538490905188866  3.1621038605368073  9.7359450826017380   F   F   F
  4.1076934089445825  5.5336817559394138  9.7359450826017380   F   F   F
  6.8461556815743041  5.5336817559394138  9.7359450826017380   F   F   F
  9.5846179542040257  5.5336817559394138  9.7359450826017380   F   F   F
 12.3230802268337474  5.5336817559394138  9.7359450826017380   F   F   F
  5.4769245452594433  7.9052596513420195  9.7359450826017380   F   F   F
  8.2153868178891649  7.9052596513420195  9.7359450826017380   F   F   F
 10.9538490905188866  7.9052596513420195  9.7359450826017380   F   F   F
 13.6923113631486082  7.9052596513420195  9.7359450826017380   F   F   F
 -0.0025216743092807  1.5835863887466413 11.9328485235338277   T   T   T
  2.7494197954984108  1.5854517400507988 11.9360316692949358   T   T   T
  5.4949673860327835  1.5950105714243141 11.9672629664854782   T   T   T
  8.2127775137553627  1.5862341123177426 11.9515445722226978   T   T   T
  1.3722640779621798  3.9547428701378995 11.9488661357743258   T   T   T
  4.1266977027171672  3.9652903872978156 11.9728636485552968   T   T   T
  6.8526236399311591  3.9496816982294258 11.9404348096715403   T   T   T
  9.5801373846168012  3.9539203631402002 11.9517809976968969   T   T   T
  2.7377993922976076  6.3256269115176851 11.9467976994235325   T   T   T
  5.4767325338613713  6.3037524825873508 11.9729382040442456   T   T   T
  8.2132215146330960  6.3042925627237398 11.9676423912014744   T   T   T
 10.9547505738565754  6.3249595546470427 11.9469771138622232   T   T   T
  4.1087212402745070  8.6946878364673399 11.9483285770824050   T   T   T
  6.8486369364491129  8.6864306978737496 11.9358815962966762   T   T   T
  9.5865452252396022  8.6962973011985412 11.9520675230633859   T   T   T
 12.3232567107245732  8.6969104009448568 11.9467917241849086   T   T   T
  0.0082455634358867  0.0016977492330041 14.1507242434163292   T   T   T
  2.7369128228569073  0.0034841458904486 14.1527595729941620   T   T   T
  5.4825205080460488  0.0052110722665318 14.1551575584713394   T   T   T
  8.2182054851926392 -0.0075547314230215 14.1582162026578207   T   T   T
  1.3743852468253486  2.3670204828677655 14.1504992461532435   T   T   T
  4.0829048370294618  2.3519993462822604 14.1466518018557181   T   T   T
  6.8536306534212033  2.3680481049635893 14.2495602439881299   T   T   T
  9.6304575605527063  2.3475660749929843 14.1382384451494119   T   T   T
  2.7083717600338613  4.7449279528216159 14.1536014913185735   T   T   T
  5.4213390769271541  4.7776665696315694 14.2174409632138108   T   T   T
  8.2264635284560086  4.7423414371878989 14.2489320151429126   T   T   T
 10.9645364667883065  4.7469854979791357 14.1587333451810711   T   T   T
  4.0941542123989407  7.1433952977174764 14.1538235633025522   T   T   T
  6.8537552479527610  7.1489169438019937 14.1464992726114005   T   T   T
  9.5849969255765295  7.1095169866593739 14.1552918028770023   T   T   T
 12.3185745881133979  7.1196525179041998 14.1586054684110998   T   T   T
  7.2314341722915119  3.7331144492519344 15.8139374642851589   T   T   T
  6.0728622164412416  4.4025421621271992 16.1684463320208707   T   T   T
  7.7281898251738399  3.4450291951340444 16.6680106524715903   T   T   T
