Pt  N  O  H 
 1.0000000000000000
    11.2211673782643580    0.0000000000000000    0.0000000000000000
     5.6105836891321790    9.7178160096941610    0.0000000000000000
     0.0000000000000000    0.0000000000000000   21.8715335987779369
 Pt  N   O   H  
  64   1   1   1
Selective dynamics
Cartesian
  0.0000000000000000  0.0000000000000000  7.4999999999999991   F   F   F
  2.8052918445660895  0.0000000000000000  7.4999999999999991   F   F   F
  5.6105836891321790  0.0000000000000000  7.4999999999999991   F   F   F
  8.4158755336982694  0.0000000000000000  7.4999999999999991   F   F   F
  1.4026459222830447  2.4294540024235403  7.4999999999999991   F   F   F
  4.2079377668491347  2.4294540024235403  7.4999999999999991   F   F   F
  7.0132296114152233  2.4294540024235403  7.4999999999999991   F   F   F
  9.8185214559813137  2.4294540024235403  7.4999999999999991   F   F   F
  2.8052918445660895  4.8589080048470805  7.4999999999999991   F   F   F
  5.6105836891321790  4.8589080048470805  7.4999999999999991   F   F   F
  8.4158755336982694  4.8589080048470805  7.4999999999999991   F   F   F
 11.2211673782643580  4.8589080048470805  7.4999999999999991   F   F   F
  4.2079377668491347  7.2883620072706208  7.4999999999999991   F   F   F
  7.0132296114152242  7.2883620072706208  7.4999999999999991   F   F   F
  9.8185214559813137  7.2883620072706208  7.4999999999999991   F   F   F
 12.6238133005474040  7.2883620072706208  7.4999999999999991   F   F   F
  1.4026459222830447  0.8098180008078467  9.7905111995926450   F   F   F
  4.2079377668491338  0.8098180008078467  9.7905111995926450   F   F   F
  7.0132296114152242  0.8098180008078467  9.7905111995926450   F   F   F
  9.8185214559813137  0.8098180008078467  9.7905111995926450   F   F   F
  2.8052918445660895  3.2392720032313869  9.7905111995926450   F   F   F
  5.6105836891321790  3.2392720032313869  9.7905111995926450   F   F   F
  8.4158755336982694  3.2392720032313869  9.7905111995926450   F   F   F
 11.2211673782643580  3.2392720032313869  9.7905111995926450   F   F   F
  4.2079377668491347  5.6687260056549276  9.7905111995926450   F   F   F
  7.0132296114152233  5.6687260056549276  9.7905111995926450   F   F   F
  9.8185214559813137  5.6687260056549276  9.7905111995926450   F   F   F
 12.6238133005474040  5.6687260056549276  9.7905111995926450   F   F   F
  5.6105836891321790  8.0981800080784687  9.7905111995926450   F   F   F
  8.4158755336982694  8.0981800080784687  9.7905111995926450   F   F   F
 11.2211673782643580  8.0981800080784687  9.7905111995926450   F   F   F
 14.0264592228304483  8.0981800080784687  9.7905111995926450   F   F   F
 -0.0008914474230083  1.6051939398100257 12.0665841428463168   T   T   T
  2.8484506420982836  1.6344430108866879 12.1433335202266566   T   T   T
  5.6255370305249404  1.6288339500025952 12.1109711839715963   T   T   T
  8.3831969604695402  1.6415348502413700 12.1483168895219098   T   T   T
  1.4107390968697791  4.0349990753619025 12.0753397179882800   T   T   T
  4.2280874882223403  4.0427344627432138 12.1112550670158470   T   T   T
  7.0267552282044843  4.0505082337514091 12.0886178200229306   T   T   T
  9.8371281781656705  4.0431800831455238 12.0729948990458933   T   T   T
  2.8143849711580997  6.4769018091155388 12.0725489754290312   T   T   T
  5.6163970735437951  6.4258514095420773 12.1508327544148358   T   T   T
  8.4242662747150270  6.4891730057813906 12.0730649985395644   T   T   T
 11.2323827684015036  6.4778578271511158 12.0859962159992111   T   T   T
  4.2112038845226145  8.9014239440399301 12.0794557036249266   T   T   T
  7.0056365726175169  8.9026225762223898 12.0676893540273635   T   T   T
  9.8186433724609810  8.9108964068946417 12.0756192842316974   T   T   T
 12.6360998128157753  8.9065641564653522 12.0725994458006465   T   T   T
 -0.0035005316590236 -0.0192590176545657 14.4341201050933670   T   T   T
  2.7758445505217999 -0.0715071705996583 14.4283514977080074   T   T   T
  5.6305662777148582 -0.0242454592434255 14.3720636354448086   T   T   T
  8.4356496333218534 -0.0125053272529881 14.4230660627757210   T   T   T
  1.3448343661250983  2.4116575032517584 14.4273445480211819   T   T   T
  4.0500456732985617  2.3184447871868601 14.4553945199194835   T   T   T
  7.1147443741770369  2.4432057739667665 14.5038493447581214   T   T   T
  9.8712805180996046  2.4210465235737177 14.4255491929500366   T   T   T
  2.8080341493615948  4.8589669982972428 14.3737713817216459   T   T   T
  5.6829424234273311  4.9080786956687845 14.5098846871429981   T   T   T
  8.5020251530532089  4.8948002193652647 14.3803669241278058   T   T   T
 11.2499325241334205  4.8649252138679211 14.4225354391976719   T   T   T
  4.2169529988922738  7.2859783246331418 14.4243751991708606   T   T   T
  7.0420204931092689  7.3100931664033899 14.4260942576362758   T   T   T
  9.8523357070639772  7.2850093029618295 14.4218077226458004   T   T   T
 12.6465404604030063  7.2851670441235807 14.4168644939219064   T   T   T
  6.0073676786375749  3.4421925069793846 15.9651829058401979   T   T   T
  4.8876437599334119  2.7894168948502460 16.3465102305497574   T   T   T
  6.5251191888532514  3.7379857211162695 16.8078654749534451   T   T   T
