Pd  N  O  H 
 1.0000000000000000
    11.1449118996936107    0.0000000000000000    0.0000000000000000
     5.5724559498468054    9.6517768280741532    0.0000000000000000
     0.0000000000000000    0.0000000000000000   21.8248368456304220
 Pd  N   O   H  
  64   1   1   1
Selective dynamics
Cartesian
  0.0000000000000000  0.0000000000000000  7.5000000000000000   F   F   F
  2.7862279749234027  0.0000000000000000  7.5000000000000000   F   F   F
  5.5724559498468054  0.0000000000000000  7.5000000000000000   F   F   F
  8.3586839247702081  0.0000000000000000  7.5000000000000000   F   F   F
  1.3931139874617013  2.4129442070185383  7.5000000000000000   F   F   F
  4.1793419623851040  2.4129442070185383  7.5000000000000000   F   F   F
  6.9655699373085067  2.4129442070185383  7.5000000000000000   F   F   F
  9.7517979122319094  2.4129442070185383  7.5000000000000000   F   F   F
  2.7862279749234027  4.8258884140370766  7.5000000000000000   F   F   F
  5.5724559498468054  4.8258884140370766  7.5000000000000000   F   F   F
  8.3586839247702081  4.8258884140370766  7.5000000000000000   F   F   F
 11.1449118996936107  4.8258884140370766  7.5000000000000000   F   F   F
  4.1793419623851040  7.2388326210556144  7.5000000000000000   F   F   F
  6.9655699373085067  7.2388326210556144  7.5000000000000000   F   F   F
  9.7517979122319094  7.2388326210556144  7.5000000000000000   F   F   F
 12.5380258871553121  7.2388326210556144  7.5000000000000000   F   F   F
  1.3931139874617013  0.8043147356728461  9.7749456152101395   F   F   F
  4.1793419623851040  0.8043147356728461  9.7749456152101395   F   F   F
  6.9655699373085067  0.8043147356728461  9.7749456152101395   F   F   F
  9.7517979122319094  0.8043147356728461  9.7749456152101395   F   F   F
  2.7862279749234027  3.2172589426913842  9.7749456152101395   F   F   F
  5.5724559498468054  3.2172589426913842  9.7749456152101395   F   F   F
  8.3586839247702081  3.2172589426913842  9.7749456152101395   F   F   F
 11.1449118996936107  3.2172589426913842  9.7749456152101395   F   F   F
  4.1793419623851040  5.6302031497099234  9.7749456152101395   F   F   F
  6.9655699373085067  5.6302031497099234  9.7749456152101395   F   F   F
  9.7517979122319094  5.6302031497099234  9.7749456152101395   F   F   F
 12.5380258871553121  5.6302031497099234  9.7749456152101395   F   F   F
  5.5724559498468054  8.0431473567284613  9.7749456152101395   F   F   F
  8.3586839247702081  8.0431473567284613  9.7749456152101395   F   F   F
 11.1449118996936107  8.0431473567284613  9.7749456152101395   F   F   F
 13.9311398746170134  8.0431473567284613  9.7749456152101395   F   F   F
  0.0000388936499598  1.5991879393509296 12.0692930243840379   T   T   T
  2.8094962009113349  1.6159063826175890 12.1223412864796778   T   T   T
  5.5806773850541012  1.6109331486652061 12.0890324374369005   T   T   T
  8.3403048169512726  1.6170606792959346 12.1331018717134818   T   T   T
  1.3977609246513514  4.0127772406772957 12.0690540164088667   T   T   T
  4.1897072712077259  4.0163927994222322 12.0912602653131973   T   T   T
  6.9725333685728739  4.0199668884138822 12.0766197986472914   T   T   T
  9.7636256873263694  4.0138636603944304 12.0662867997339198   T   T   T
  2.7885963463100931  6.4279764931040964 12.0680587928840684   T   T   T
  5.5743333482154247  6.3990541042168090 12.1346822088536577   T   T   T
  8.3635598701293397  6.4386813448324354 12.0651233976874206   T   T   T
 11.1499343538059588  6.4325578042731779 12.0706647599802288   T   T   T
  4.1769551255124986  8.8365116818796476 12.0775312422585976   T   T   T
  6.9636324750702112  8.8398717011670573 12.0696396248562419   T   T   T
  9.7534602739045226  8.8479198334270848 12.0688117453110504   T   T   T
 12.5429440387593694  8.8449919819926563 12.0678940884205748   T   T   T
 -0.0067650567489946 -0.0210316859967909 14.4022272672860918   T   T   T
  2.7632491681230871 -0.0434701426704542 14.4035803443129282   T   T   T
  5.5905106399512654 -0.0187688355781432 14.3712554066439537   T   T   T
  8.3703651250980027 -0.0053989146306178 14.4073947247886416   T   T   T
  1.3563368038175594  2.3951232105023856 14.4048906700711310   T   T   T
  4.0705512008112770  2.3339197002450627 14.4280029713728588   T   T   T
  7.0301404291211389  2.4324885717491185 14.4823029356972857   T   T   T
  9.7875280075557995  2.4073256169577926 14.4104255386495712   T   T   T
  2.7917916641743754  4.8272066313614719 14.3715932351129112   T   T   T
  5.6323654440976050  4.8393706849891531 14.4949383276663326   T   T   T
  8.4307997034878692  4.8544278042246205 14.3651292684048038   T   T   T
 11.1679655436936844  4.8252817979978397 14.3947383333757664   T   T   T
  4.1928429512895713  7.2260999398784360 14.4059619525825564   T   T   T
  6.9903372633350767  7.2469478780926595 14.4101035049628443   T   T   T
  9.7748559083537181  7.2382549321663223 14.3950845449193920   T   T   T
 12.5569028853958464  7.2351610138342473 14.3895809146283717   T   T   T
  5.9880887744301381  3.4249456024091498 15.9591044079760671   T   T   T
  4.8990056339788399  2.7855818694063044 16.3678253861842364   T   T   T
  6.5362225474353011  3.7335335029520982 16.7803042950764656   T   T   T
