Au  N  O  H 
 1.0000000000000000
    11.7602134546722201    0.0000000000000000    0.0000000000000000
     5.8801067273361101   10.1846436056736955    0.0000000000000000
     0.0000000000000000    0.0000000000000000   22.2016305575400814
 Au  N   O   H  
  64   1   1   1
Selective dynamics
Cartesian
  0.0000000000000000  0.0000000000000000  7.5000000000000000   F   F   F
  2.9400533636680550  0.0000000000000000  7.5000000000000000   F   F   F
  5.8801067273361101  0.0000000000000000  7.5000000000000000   F   F   F
  8.8201600910041655  0.0000000000000000  7.5000000000000000   F   F   F
  1.4700266818340275  2.5461609014184239  7.5000000000000000   F   F   F
  4.4100800455020828  2.5461609014184239  7.5000000000000000   F   F   F
  7.3501334091701374  2.5461609014184239  7.5000000000000000   F   F   F
 10.2901867728381937  2.5461609014184239  7.5000000000000000   F   F   F
  2.9400533636680550  5.0923218028368478  7.5000000000000000   F   F   F
  5.8801067273361101  5.0923218028368478  7.5000000000000000   F   F   F
  8.8201600910041655  5.0923218028368478  7.5000000000000000   F   F   F
 11.7602134546722201  5.0923218028368478  7.5000000000000000   F   F   F
  4.4100800455020828  7.6384827042552716  7.5000000000000000   F   F   F
  7.3501334091701374  7.6384827042552716  7.5000000000000000   F   F   F
 10.2901867728381937  7.6384827042552716  7.5000000000000000   F   F   F
 13.2302401365062483  7.6384827042552716  7.5000000000000000   F   F   F
  1.4700266818340275  0.8487203004728079  9.9005435191800277   F   F   F
  4.4100800455020828  0.8487203004728079  9.9005435191800277   F   F   F
  7.3501334091701382  0.8487203004728079  9.9005435191800277   F   F   F
 10.2901867728381937  0.8487203004728079  9.9005435191800277   F   F   F
  2.9400533636680550  3.3948812018912315  9.9005435191800277   F   F   F
  5.8801067273361101  3.3948812018912315  9.9005435191800277   F   F   F
  8.8201600910041655  3.3948812018912315  9.9005435191800277   F   F   F
 11.7602134546722219  3.3948812018912315  9.9005435191800277   F   F   F
  4.4100800455020828  5.9410421033096563  9.9005435191800277   F   F   F
  7.3501334091701374  5.9410421033096563  9.9005435191800277   F   F   F
 10.2901867728381937  5.9410421033096563  9.9005435191800277   F   F   F
 13.2302401365062483  5.9410421033096563  9.9005435191800277   F   F   F
  5.8801067273361109  8.4872030047280802  9.9005435191800277   F   F   F
  8.8201600910041655  8.4872030047280802  9.9005435191800277   F   F   F
 11.7602134546722219  8.4872030047280802  9.9005435191800277   F   F   F
 14.7002668183402765  8.4872030047280802  9.9005435191800277   F   F   F
  0.0006149356790181  1.6937120232902718 12.3054315783529482   T   T   T
  2.9373640823826483  1.6909349121055042 12.3178008544882740   T   T   T
  5.8717876495750847  1.6951958536932135 12.3026697185015141   T   T   T
  8.8153356149038853  1.6909833216753238 12.3086065564765974   T   T   T
  1.4676036558668524  4.2327705581184700 12.2981010894458844   T   T   T
  4.4097935191675512  4.2345941658943529 12.3019978767491587   T   T   T
  7.3701357442026421  4.2513935407016028 12.3717310731961625   T   T   T
 10.2727713681915844  4.2455392260320153 12.3545416211391768   T   T   T
  2.9328871772783587  6.7851204661020992 12.3178210526315901   T   T   T
  5.8735570571955336  6.7874009420099508 12.3082197433404996   T   T   T
  8.8193073379727718  6.7668734502710084 12.3565122649441754   T   T   T
 11.7536914304746034  6.7881809977593397 12.3089089430422725   T   T   T
  4.4052813751961164  9.3335985688401575 12.3169716897366008   T   T   T
  7.3499996965531800  9.3324821729306962 12.3071941626390249   T   T   T
 10.2815044700947738  9.3307238159391410 12.3109761081950442   T   T   T
 13.2234382696428039  9.3318454873519681 12.3188670674605216   T   T   T
 -0.0075513790795722 -0.0097219309220467 14.7960592325756544   T   T   T
  2.9285156305515820  0.0005184823416548 14.7981455228990235   T   T   T
  5.8648819136276042 -0.0124965597991284 14.8009091586243464   T   T   T
  8.8096387183217342 -0.0183806720663709 14.7914433752655565   T   T   T
  1.4628732283177901  2.5331282432562294 14.7947478912620394   T   T   T
  4.3933635731029703  2.5313816967740275 14.7946826130495968   T   T   T
  7.3187564999165966  2.4950950784732848 14.7599174408739184   T   T   T
 10.2910831623701018  2.5052748597472152 14.7589331315840564   T   T   T
  2.9290884398397465  5.0820656464789877 14.7923762844783884   T   T   T
  5.8158811617295489  5.0857763316055609 14.7616959012807332   T   T   T
  8.7824494254023158  5.0909503334625850 14.8852679855958083   T   T   T
 11.7988593695654131  5.0862266218062455 14.7455484718731302   T   T   T
  4.3912420026551615  7.6379586096726708 14.7871346678315891   T   T   T
  7.3197611952418962  7.6572737307147767 14.7609441647715478   T   T   T
 10.2984917694443201  7.6557419831148685 14.7799585969266243   T   T   T
 13.2234576053503350  7.6360097150735715 14.7963694632868368   T   T   T
  9.0099629232395522  5.2013392452339646 17.1168691510281228   T   T   T
  8.1447124427178643  5.1482404674094484 17.9989184572703920   T   T   T
  9.9015447853192367  5.6592421271107485 17.4504248442846617   T   T   T
