Ag  N  O  H 
 1.0000000000000000
    11.7283536979856873    0.0000000000000000    0.0000000000000000
     5.8641768489928436   10.1570522470247671    0.0000000000000000
     0.0000000000000000    0.0000000000000000   22.1821205207372749
 Ag  N   O   H  
  64   1   1   1
Selective dynamics
Cartesian
  0.0000000000000000  0.0000000000000000  7.5000000000000000   F   F   F
  2.9320884244964218  0.0000000000000000  7.5000000000000000   F   F   F
  5.8641768489928436  0.0000000000000000  7.5000000000000000   F   F   F
  8.7962652734892650  0.0000000000000000  7.5000000000000000   F   F   F
  1.4660442122482109  2.5392630617561918  7.5000000000000000   F   F   F
  4.3981326367446325  2.5392630617561918  7.5000000000000000   F   F   F
  7.3302210612410548  2.5392630617561918  7.5000000000000000   F   F   F
 10.2623094857374753  2.5392630617561918  7.5000000000000000   F   F   F
  2.9320884244964218  5.0785261235123835  7.5000000000000000   F   F   F
  5.8641768489928436  5.0785261235123835  7.5000000000000000   F   F   F
  8.7962652734892650  5.0785261235123835  7.5000000000000000   F   F   F
 11.7283536979856873  5.0785261235123835  7.5000000000000000   F   F   F
  4.3981326367446325  7.6177891852685757  7.5000000000000000   F   F   F
  7.3302210612410548  7.6177891852685757  7.5000000000000000   F   F   F
 10.2623094857374753  7.6177891852685757  7.5000000000000000   F   F   F
 13.1943979102338975  7.6177891852685757  7.5000000000000000   F   F   F
  1.4660442122482109  0.8464210205853973  9.8940401735790910   F   F   F
  4.3981326367446325  0.8464210205853973  9.8940401735790910   F   F   F
  7.3302210612410548  0.8464210205853973  9.8940401735790910   F   F   F
 10.2623094857374770  0.8464210205853973  9.8940401735790910   F   F   F
  2.9320884244964218  3.3856840823415890  9.8940401735790910   F   F   F
  5.8641768489928436  3.3856840823415890  9.8940401735790910   F   F   F
  8.7962652734892650  3.3856840823415890  9.8940401735790910   F   F   F
 11.7283536979856891  3.3856840823415890  9.8940401735790910   F   F   F
  4.3981326367446325  5.9249471440977812  9.8940401735790910   F   F   F
  7.3302210612410548  5.9249471440977812  9.8940401735790910   F   F   F
 10.2623094857374770  5.9249471440977812  9.8940401735790910   F   F   F
 13.1943979102338993  5.9249471440977812  9.8940401735790910   F   F   F
  5.8641768489928445  8.4642102058539734  9.8940401735790910   F   F   F
  8.7962652734892650  8.4642102058539734  9.8940401735790910   F   F   F
 11.7283536979856891  8.4642102058539734  9.8940401735790910   F   F   F
 14.6604421224821095  8.4642102058539734  9.8940401735790910   F   F   F
 -0.0153304305230772  1.7008981350539707 12.3077667071559596   T   T   T
  2.9188206147662190  1.6972089435640252 12.3127052334252909   T   T   T
  5.8514958747231836  1.7025994258692114 12.3143244778932708   T   T   T
  8.7785963411018102  1.7011119954239280 12.3111255284857535   T   T   T
  1.4539952333239778  4.2334609974083381 12.3091124291981640   T   T   T
  4.3853795941232132  4.2361335411206005 12.3067613261138078   T   T   T
  7.3284320041302502  4.2482470930948129 12.3463518172490261   T   T   T
 10.2363067791795554  4.2439988787784166 12.3461998889506663   T   T   T
  2.9179169969810981  6.7761807859483465 12.3143581078827040   T   T   T
  5.8507382634833105  6.7804927249278348 12.3116666978120630   T   T   T
  8.7802878307311882  6.7588968306422856 12.3570954230360961   T   T   T
 11.7132015540588394  6.7770488917138731 12.3141682404563024   T   T   T
  4.3798162176786732  9.3189221063594232 12.3163244785336943   T   T   T
  7.3148475063024998  9.3177577080607996 12.3084763211990982   T   T   T
 10.2428897650472628  9.3139077063782523 12.3122269225241858   T   T   T
 13.1753992663795483  9.3177124059136887 12.3147008328081728   T   T   T
 -0.0234410209831188  0.0110046049526141 14.7661840875591253   T   T   T
  2.9093385211973133  0.0147060141164771 14.7651793009205665   T   T   T
  5.8384634326303981  0.0118091856776908 14.7668256265802107   T   T   T
  8.7721817217143556  0.0060612623439590 14.7652949966156548   T   T   T
  1.4457478046206538  2.5482441272430769 14.7640904565592521   T   T   T
  4.3728170192004603  2.5486712895437620 14.7598657791655530   T   T   T
  7.3072984064476918  2.5358567377863066 14.7607922323747722   T   T   T
 10.2493827310936929  2.5281572060538933 14.7475095785832053   T   T   T
  2.9078526614081883  5.0885292008526282 14.7678136384420462   T   T   T
  5.8186563622172836  5.0951998100919651 14.7365749558016361   T   T   T
  8.7676064425862759  5.0871600105622887 14.8984041034133163   T   T   T
 11.7228947272958859  5.0903979639992656 14.7436937577310481   T   T   T
  4.3690110461686480  7.6321789082607250 14.7680933940743664   T   T   T
  7.2959677879933542  7.6483822655224758 14.7495939716548996   T   T   T
 10.2504766137615704  7.6391694863723014 14.7561552504471791   T   T   T
 13.1722413213606977  7.6299235342316880 14.7654239814040533   T   T   T
  8.7375010083446014  4.7905222366119355 17.2524577125834853   T   T   T
  7.8532026685690308  5.1024404464258470 18.0722078377973077   T   T   T
  9.3338326369884665  3.9965679555015714 17.6309030931487740   T   T   T
