Rh  N  O 
 1.0000000000000000
     8.1252569843256168    0.0000000000000000    0.0000000000000000
     0.0000000000000000    8.1252569843256168    0.0000000000000000
     0.0000000000000000    0.0000000000000000   24.5757071875000008
 Rh  N   O  
  54   1   2
Selective dynamics
Cartesian
  1.3542094973876027  1.3542094973876027  7.5000000000000000   F   F   F
  4.0626284921628084  1.3542094973876027  7.5000000000000000   F   F   F
  6.7710474869380128  1.3542094973876027  7.5000000000000000   F   F   F
  1.3542094973876027  4.0626284921628084  7.5000000000000000   F   F   F
  4.0626284921628084  4.0626284921628084  7.5000000000000000   F   F   F
  6.7710474869380128  4.0626284921628084  7.5000000000000000   F   F   F
  1.3542094973876027  6.7710474869380128  7.5000000000000000   F   F   F
  4.0626284921628084  6.7710474869380128  7.5000000000000000   F   F   F
  6.7710474869380128  6.7710474869380128  7.5000000000000000   F   F   F
  0.0000000000000000  0.0000000000000000  9.4151414375000009   F   F   F
  2.7084189947752053  0.0000000000000000  9.4151414375000009   F   F   F
  5.4168379895504106  0.0000000000000000  9.4151414375000009   F   F   F
  0.0000000000000000  2.7084189947752053  9.4151414375000009   F   F   F
  2.7084189947752053  2.7084189947752053  9.4151414375000009   F   F   F
  5.4168379895504106  2.7084189947752053  9.4151414375000009   F   F   F
  0.0000000000000000  5.4168379895504106  9.4151414375000009   F   F   F
  2.7084189947752053  5.4168379895504106  9.4151414375000009   F   F   F
  5.4168379895504106  5.4168379895504106  9.4151414375000009   F   F   F
  1.3542094973876027  1.3542094973876027 11.3302828750000000   F   F   F
  4.0626284921628084  1.3542094973876027 11.3302828750000000   F   F   F
  6.7710474869380128  1.3542094973876027 11.3302828750000000   F   F   F
  1.3542094973876027  4.0626284921628084 11.3302828750000000   F   F   F
  4.0626284921628084  4.0626284921628084 11.3302828750000000   F   F   F
  6.7710474869380128  4.0626284921628084 11.3302828750000000   F   F   F
  1.3542094973876027  6.7710474869380128 11.3302828750000000   F   F   F
  4.0626284921628084  6.7710474869380128 11.3302828750000000   F   F   F
  6.7710474869380128  6.7710474869380128 11.3302828750000000   F   F   F
  0.0000000000000000  0.0000000000000000 13.2454243124999991   F   F   F
  2.7084189947752053  0.0000000000000000 13.2454243124999991   F   F   F
  5.4168379895504106  0.0000000000000000 13.2454243124999991   F   F   F
  0.0000000000000000  2.7084189947752053 13.2454243124999991   F   F   F
  2.7084189947752053  2.7084189947752053 13.2454243124999991   F   F   F
  5.4168379895504106  2.7084189947752053 13.2454243124999991   F   F   F
  0.0000000000000000  5.4168379895504106 13.2454243124999991   F   F   F
  2.7084189947752053  5.4168379895504106 13.2454243124999991   F   F   F
  5.4168379895504106  5.4168379895504106 13.2454243124999991   F   F   F
  1.3704374968576207  1.3640224402607295 15.1983091721150529   T   T   T
  4.0464004926927952  1.3640224402607295 15.1983091721150529   T   T   T
  6.7710474869380128  1.3529422081511666 15.1695518339516990   T   T   T
  1.3553585585663426  4.0645635063765360 15.1952077964558701   T   T   T
  4.0614794309840718  4.0645635063765360 15.1952077964558701   T   T   T
  6.7710474869380128  4.0629637437750814 15.1754561719663990   T   T   T
  1.3660469918341427  6.7627479417101766 15.1875302614256835   T   T   T
  4.0507909977162626  6.7627479417101766 15.1875302614256835   T   T   T
  6.7710474869380128  6.7702572067677078 15.1704627402244245   T   T   T
 -0.0094162428913449 -0.0014269149604259 17.0307809644923864   T   T   T
  2.7084189947752053 -0.0183194827118422 17.0443583566643397   T   T   T
  5.4262542324417637 -0.0014269149604259 17.0307809644923864   T   T   T
 -0.0163952277702929  2.7025934521897206 17.0264037028684641   T   T   T
  2.7084189947752053  2.6599946703884330 17.1266929987997649   T   T   T
  5.4332332173207023  2.7025934521897206 17.0264037028684641   T   T   T
 -0.0174403911502635  5.4266909979440081 17.0286473722591296   T   T   T
  2.7084189947752053  5.4479669268599826 17.1762016852483725   T   T   T
  5.4342783807006665  5.4266909979440081 17.0286473722591296   T   T   T
  2.7084189947752053  4.7248768725118193 19.0477295893001006   T   T   T
  2.7084189947752053  5.3553619828877110 20.0996874359246185   T   T   T
  2.7084189947752053  3.3991760319817481 19.1084425911890143   T   T   T
