Ni  N  O 
 1.0000000000000000
     7.4637869660136236    0.0000000000000000    0.0000000000000000
     0.0000000000000000    7.4637869660136236    0.0000000000000000
     0.0000000000000000    0.0000000000000000   23.7961572950000004
 Ni  N   O  
  54   1   2
Selective dynamics
Cartesian
  1.2439644943356039  1.2439644943356039  7.5000000000000009   F   F   F
  3.7318934830068118  1.2439644943356039  7.5000000000000009   F   F   F
  6.2198224716780190  1.2439644943356039  7.5000000000000009   F   F   F
  1.2439644943356039  3.7318934830068118  7.5000000000000009   F   F   F
  3.7318934830068118  3.7318934830068118  7.5000000000000009   F   F   F
  6.2198224716780190  3.7318934830068118  7.5000000000000009   F   F   F
  1.2439644943356039  6.2198224716780190  7.5000000000000009   F   F   F
  3.7318934830068118  6.2198224716780190  7.5000000000000009   F   F   F
  6.2198224716780190  6.2198224716780190  7.5000000000000009   F   F   F
  0.0000000000000000  0.0000000000000000  9.2592314590000004   F   F   F
  2.4879289886712077  0.0000000000000000  9.2592314590000004   F   F   F
  4.9758579773424154  0.0000000000000000  9.2592314590000004   F   F   F
  0.0000000000000000  2.4879289886712077  9.2592314590000004   F   F   F
  2.4879289886712077  2.4879289886712077  9.2592314590000004   F   F   F
  4.9758579773424154  2.4879289886712077  9.2592314590000004   F   F   F
  0.0000000000000000  4.9758579773424154  9.2592314590000004   F   F   F
  2.4879289886712077  4.9758579773424154  9.2592314590000004   F   F   F
  4.9758579773424154  4.9758579773424154  9.2592314590000004   F   F   F
  1.2439644943356039  1.2439644943356039 11.0184629180000009   F   F   F
  3.7318934830068118  1.2439644943356039 11.0184629180000009   F   F   F
  6.2198224716780190  1.2439644943356039 11.0184629180000009   F   F   F
  1.2439644943356039  3.7318934830068118 11.0184629180000009   F   F   F
  3.7318934830068118  3.7318934830068118 11.0184629180000009   F   F   F
  6.2198224716780190  3.7318934830068118 11.0184629180000009   F   F   F
  1.2439644943356039  6.2198224716780190 11.0184629180000009   F   F   F
  3.7318934830068118  6.2198224716780190 11.0184629180000009   F   F   F
  6.2198224716780190  6.2198224716780190 11.0184629180000009   F   F   F
  0.0000000000000000  0.0000000000000000 12.7776943769999995   F   F   F
  2.4879289886712077  0.0000000000000000 12.7776943769999995   F   F   F
  4.9758579773424154  0.0000000000000000 12.7776943769999995   F   F   F
  0.0000000000000000  2.4879289886712077 12.7776943769999995   F   F   F
  2.4879289886712077  2.4879289886712077 12.7776943769999995   F   F   F
  4.9758579773424154  2.4879289886712077 12.7776943769999995   F   F   F
  0.0000000000000000  4.9758579773424154 12.7776943769999995   F   F   F
  2.4879289886712077  4.9758579773424154 12.7776943769999995   F   F   F
  4.9758579773424154  4.9758579773424154 12.7776943769999995   F   F   F
  1.2574217000276642  1.2648188653366637 14.5959769320486306   T   T   T
  3.7184362773147499  1.2648188653366637 14.5959769320486306   T   T   T
  6.2198224716780190  1.2419608890606768 14.5700831626064549   T   T   T
  1.2634597956122346  3.7396835788314942 14.6114682714522530   T   T   T
  3.7123981817301788  3.7396835788314942 14.6114682714522530   T   T   T
  6.2198224716780190  3.7347380771688297 14.5707151276216820   T   T   T
  1.2564241808417871  6.2146198229519367 14.5894723889312896   T   T   T
  3.7194337965006281  6.2146198229519367 14.5894723889312896   T   T   T
  6.2198224716780190  6.2254223372469442 14.5700699664860824   T   T   T
 -0.0035090948909907  0.0026615688569466 16.3064555488057685   T   T   T
  2.4879289886712077  0.0131805848930648 16.3040332215933894   T   T   T
  4.9793670722334058  0.0026615688569466 16.3064555488057685   T   T   T
 -0.0217143914072587  2.4851962788118622 16.2974020846268211   T   T   T
  2.4879289886712077  2.4570025382130001 16.4666410931766407   T   T   T
  4.9975723687496734  2.4851962788118622 16.2974020846268211   T   T   T
 -0.0188271698589038  4.9857769791014350 16.2975613980341265   T   T   T
  2.4879289886712077  5.0581300863874938 16.4839536785843634   T   T   T
  4.9946851472013201  4.9857769791014350 16.2975613980341265   T   T   T
  2.4879289886712077  4.4556814236408604 18.2719120666191053   T   T   T
  2.4879289886712077  5.0695205155108756 19.3330846200811912   T   T   T
  2.4879289886712077  3.1236531941320078 18.3186781562487973   T   T   T
