Ir  N  O 
 1.0000000000000000
     8.2153868178891649    0.0000000000000000    0.0000000000000000
     0.0000000000000000    8.2153868178891649    0.0000000000000000
     0.0000000000000000    0.0000000000000000   24.6819262150000007
 Ir  N   O  
  54   1   2
Selective dynamics
Cartesian
  1.3692311363148608  1.3692311363148608  7.5000000000000000   F   F   F
  4.1076934089445825  1.3692311363148608  7.5000000000000000   F   F   F
  6.8461556815743041  1.3692311363148608  7.5000000000000000   F   F   F
  1.3692311363148608  4.1076934089445825  7.5000000000000000   F   F   F
  4.1076934089445825  4.1076934089445825  7.5000000000000000   F   F   F
  6.8461556815743041  4.1076934089445825  7.5000000000000000   F   F   F
  1.3692311363148608  6.8461556815743041  7.5000000000000000   F   F   F
  4.1076934089445825  6.8461556815743041  7.5000000000000000   F   F   F
  6.8461556815743041  6.8461556815743041  7.5000000000000000   F   F   F
  0.0000000000000000  0.0000000000000000  9.4363852430000001   F   F   F
  2.7384622726297216  0.0000000000000000  9.4363852430000001   F   F   F
  5.4769245452594433  0.0000000000000000  9.4363852430000001   F   F   F
  0.0000000000000000  2.7384622726297216  9.4363852430000001   F   F   F
  2.7384622726297216  2.7384622726297216  9.4363852430000001   F   F   F
  5.4769245452594433  2.7384622726297216  9.4363852430000001   F   F   F
  0.0000000000000000  5.4769245452594433  9.4363852430000001   F   F   F
  2.7384622726297216  5.4769245452594433  9.4363852430000001   F   F   F
  5.4769245452594433  5.4769245452594433  9.4363852430000001   F   F   F
  1.3692311363148608  1.3692311363148608 11.3727704860000003   F   F   F
  4.1076934089445825  1.3692311363148608 11.3727704860000003   F   F   F
  6.8461556815743041  1.3692311363148608 11.3727704860000003   F   F   F
  1.3692311363148608  4.1076934089445825 11.3727704860000003   F   F   F
  4.1076934089445825  4.1076934089445825 11.3727704860000003   F   F   F
  6.8461556815743041  4.1076934089445825 11.3727704860000003   F   F   F
  1.3692311363148608  6.8461556815743041 11.3727704860000003   F   F   F
  4.1076934089445825  6.8461556815743041 11.3727704860000003   F   F   F
  6.8461556815743041  6.8461556815743041 11.3727704860000003   F   F   F
  0.0000000000000000  0.0000000000000000 13.3091557290000004   F   F   F
  2.7384622726297216  0.0000000000000000 13.3091557290000004   F   F   F
  5.4769245452594433  0.0000000000000000 13.3091557290000004   F   F   F
  0.0000000000000000  2.7384622726297216 13.3091557290000004   F   F   F
  2.7384622726297216  2.7384622726297216 13.3091557290000004   F   F   F
  5.4769245452594433  2.7384622726297216 13.3091557290000004   F   F   F
  0.0000000000000000  5.4769245452594433 13.3091557290000004   F   F   F
  2.7384622726297216  5.4769245452594433 13.3091557290000004   F   F   F
  5.4769245452594433  5.4769245452594433 13.3091557290000004   F   F   F
  1.3870237831671000  1.3826266965244982 15.2872383327940486   T   T   T
  4.0899007620923422  1.3826266965244982 15.2872383327940486   T   T   T
  6.8461556815743041  1.3648015612055835 15.2421361158765230   T   T   T
  1.3737158932018494  4.1105686808657831 15.2862986882663154   T   T   T
  4.1032086520575923  4.1105686808657831 15.2862986882663154   T   T   T
  6.8461556815743041  4.1081603027478959 15.2547144604523304   T   T   T
  1.3818289379224014  6.8361938035440355 15.2766442015442898   T   T   T
  4.0950956073370399  6.8361938035440355 15.2766442015442898   T   T   T
  6.8461556815743041  6.8478411809750801 15.2478299813584606   T   T   T
 -0.0132349791959001  0.0008341405930156 17.1098457317276100   T   T   T
  2.7384622726297216 -0.0134844885393139 17.1279654417462019   T   T   T
  5.4901595244553434  0.0008341405930156 17.1098457317276100   T   T   T
 -0.0269107837226407  2.7306215046221243 17.1038953357286765   T   T   T
  2.7384622726297216  2.6794363441996998 17.2028656627061167   T   T   T
  5.5038353289820847  2.7306215046221243 17.1038953357286765   T   T   T
 -0.0266422686053424  5.4849328517250635 17.1084145698895043   T   T   T
  2.7384622726297216  5.5240110016625392 17.2411835434423573   T   T   T
  5.5035668138647855  5.4849328517250635 17.1084145698895043   T   T   T
  2.7384622726297216  4.7652931019327696 19.1282367397639170   T   T   T
  2.7384622726297216  5.3610722715820955 20.1931985323099923   T   T   T
  2.7384622726297216  3.4212410677378595 19.1717927748667059   T   T   T
