Pd  N  O 
 1.0000000000000000
     8.3586839247702081    0.0000000000000000    0.0000000000000000
     0.0000000000000000    8.3586839247702081    0.0000000000000000
     0.0000000000000000    0.0000000000000000   24.8508034749999993
 Pd  N   O  
  54   1   2
Selective dynamics
Cartesian
  1.3931139874617013  1.3931139874617013  7.5000000000000000   F   F   F
  4.1793419623851040  1.3931139874617013  7.5000000000000000   F   F   F
  6.9655699373085067  1.3931139874617013  7.5000000000000000   F   F   F
  1.3931139874617013  4.1793419623851040  7.5000000000000000   F   F   F
  4.1793419623851040  4.1793419623851040  7.5000000000000000   F   F   F
  6.9655699373085067  4.1793419623851040  7.5000000000000000   F   F   F
  1.3931139874617013  6.9655699373085067  7.5000000000000000   F   F   F
  4.1793419623851040  6.9655699373085067  7.5000000000000000   F   F   F
  6.9655699373085067  6.9655699373085067  7.5000000000000000   F   F   F
  0.0000000000000000  0.0000000000000000  9.4701606950000006   F   F   F
  2.7862279749234027  0.0000000000000000  9.4701606950000006   F   F   F
  5.5724559498468054  0.0000000000000000  9.4701606950000006   F   F   F
  0.0000000000000000  2.7862279749234027  9.4701606950000006   F   F   F
  2.7862279749234027  2.7862279749234027  9.4701606950000006   F   F   F
  5.5724559498468054  2.7862279749234027  9.4701606950000006   F   F   F
  0.0000000000000000  5.5724559498468054  9.4701606950000006   F   F   F
  2.7862279749234027  5.5724559498468054  9.4701606950000006   F   F   F
  5.5724559498468054  5.5724559498468054  9.4701606950000006   F   F   F
  1.3931139874617013  1.3931139874617013 11.4403213899999994   F   F   F
  4.1793419623851040  1.3931139874617013 11.4403213899999994   F   F   F
  6.9655699373085067  1.3931139874617013 11.4403213899999994   F   F   F
  1.3931139874617013  4.1793419623851040 11.4403213899999994   F   F   F
  4.1793419623851040  4.1793419623851040 11.4403213899999994   F   F   F
  6.9655699373085067  4.1793419623851040 11.4403213899999994   F   F   F
  1.3931139874617013  6.9655699373085067 11.4403213899999994   F   F   F
  4.1793419623851040  6.9655699373085067 11.4403213899999994   F   F   F
  6.9655699373085067  6.9655699373085067 11.4403213899999994   F   F   F
  0.0000000000000000  0.0000000000000000 13.4104820849999999   F   F   F
  2.7862279749234027  0.0000000000000000 13.4104820849999999   F   F   F
  5.5724559498468054  0.0000000000000000 13.4104820849999999   F   F   F
  0.0000000000000000  2.7862279749234027 13.4104820849999999   F   F   F
  2.7862279749234027  2.7862279749234027 13.4104820849999999   F   F   F
  5.5724559498468054  2.7862279749234027 13.4104820849999999   F   F   F
  0.0000000000000000  5.5724559498468054 13.4104820849999999   F   F   F
  2.7862279749234027  5.5724559498468054 13.4104820849999999   F   F   F
  5.5724559498468054  5.5724559498468054 13.4104820849999999   F   F   F
  1.4090135593326838  1.3974169288029625 15.4344636743838297   T   T   T
  4.1634423905141240  1.3974169288029625 15.4344636743838297   T   T   T
  6.9655699373085067  1.3879929099729169 15.4031153405890198   T   T   T
  1.4050749944692886  4.1739482409821216 15.4346677269772421   T   T   T
  4.1673809553775127  4.1739482409821216 15.4346677269772421   T   T   T
  6.9655699373085067  4.1789501467375203 15.3978220024672563   T   T   T
  1.4113845708530446  6.9462152148075820 15.4367921845262703   T   T   T
  4.1610713789937614  6.9462152148075820 15.4367921845262703   T   T   T
  6.9655699373085067  6.9683743599355044 15.4016293910180515   T   T   T
 -0.0112303164941384 -0.0016339720500231 17.4078476699003737   T   T   T
  2.7862279749234027 -0.0104194456365748 17.4275764219258456   T   T   T
  5.5836862663409432 -0.0016339720500231 17.4078476699003737   T   T   T
 -0.0235623803412259  2.7798191798586807 17.3902964768529813   T   T   T
  2.7862279749234027  2.7288249753168614 17.5114605779369796   T   T   T
  5.5960183301880333  2.7798191798586807 17.3902964768529813   T   T   T
 -0.0201723296910992  5.5688567317257593 17.3912072613736086   T   T   T
  2.7862279749234027  5.6166556257108500 17.5453018490754999   T   T   T
  5.5926282795379016  5.5688567317257593 17.3912072613736086   T   T   T
  2.7862279749234027  4.8870749022975888 19.4349588906757091   T   T   T
  2.7862279749234027  5.5820690521776646 20.4468869763932304   T   T   T
  2.7862279749234027  3.5931915488902182 19.5275622732698118   T   T   T
