Pt  N  O 
 1.0000000000000000
     8.4158755336982694    0.0000000000000000    0.0000000000000000
     0.0000000000000000    8.4158755336982694    0.0000000000000000
     0.0000000000000000    0.0000000000000000   24.9182044325000014
 Pt  N   O  
  54   1   2
Selective dynamics
Cartesian
  1.4026459222830447  1.4026459222830447  7.5000000000000000   F   F   F
  4.2079377668491347  1.4026459222830447  7.5000000000000000   F   F   F
  7.0132296114152233  1.4026459222830447  7.5000000000000000   F   F   F
  1.4026459222830447  4.2079377668491347  7.5000000000000000   F   F   F
  4.2079377668491347  4.2079377668491347  7.5000000000000000   F   F   F
  7.0132296114152233  4.2079377668491347  7.5000000000000000   F   F   F
  1.4026459222830447  7.0132296114152233  7.5000000000000000   F   F   F
  4.2079377668491347  7.0132296114152233  7.5000000000000000   F   F   F
  7.0132296114152233  7.0132296114152233  7.5000000000000000   F   F   F
  0.0000000000000000  0.0000000000000000  9.4836408864999999   F   F   F
  2.8052918445660895  0.0000000000000000  9.4836408864999999   F   F   F
  5.6105836891321790  0.0000000000000000  9.4836408864999999   F   F   F
  0.0000000000000000  2.8052918445660895  9.4836408864999999   F   F   F
  2.8052918445660895  2.8052918445660895  9.4836408864999999   F   F   F
  5.6105836891321790  2.8052918445660895  9.4836408864999999   F   F   F
  0.0000000000000000  5.6105836891321790  9.4836408864999999   F   F   F
  2.8052918445660895  5.6105836891321790  9.4836408864999999   F   F   F
  5.6105836891321790  5.6105836891321790  9.4836408864999999   F   F   F
  1.4026459222830447  1.4026459222830447 11.4672817729999998   F   F   F
  4.2079377668491347  1.4026459222830447 11.4672817729999998   F   F   F
  7.0132296114152233  1.4026459222830447 11.4672817729999998   F   F   F
  1.4026459222830447  4.2079377668491347 11.4672817729999998   F   F   F
  4.2079377668491347  4.2079377668491347 11.4672817729999998   F   F   F
  7.0132296114152233  4.2079377668491347 11.4672817729999998   F   F   F
  1.4026459222830447  7.0132296114152233 11.4672817729999998   F   F   F
  4.2079377668491347  7.0132296114152233 11.4672817729999998   F   F   F
  7.0132296114152233  7.0132296114152233 11.4672817729999998   F   F   F
  0.0000000000000000  0.0000000000000000 13.4509226595000015   F   F   F
  2.8052918445660895  0.0000000000000000 13.4509226595000015   F   F   F
  5.6105836891321790  0.0000000000000000 13.4509226595000015   F   F   F
  0.0000000000000000  2.8052918445660895 13.4509226595000015   F   F   F
  2.8052918445660895  2.8052918445660895 13.4509226595000015   F   F   F
  5.6105836891321790  2.8052918445660895 13.4509226595000015   F   F   F
  0.0000000000000000  5.6105836891321790 13.4509226595000015   F   F   F
  2.8052918445660895  5.6105836891321790 13.4509226595000015   F   F   F
  5.6105836891321790  5.6105836891321790 13.4509226595000015   F   F   F
  1.4234156985942443  1.4190399437750476 15.4764255388377787   T   T   T
  4.1871679905379349  1.4190399437750476 15.4764255388377787   T   T   T
  7.0132296114152233  1.3911386553139395 15.4171319258969195   T   T   T
  1.4286835640539095  4.2067456390012090 15.4916472411792849   T   T   T
  4.1819001250782719  4.2067456390012090 15.4916472411792849   T   T   T
  7.0132296114152233  4.2060014744794456 15.4272954287059694   T   T   T
  1.4277217050191122  6.9865813527693756 15.4833313512245834   T   T   T
  4.1828619841130692  6.9865813527693756 15.4833313512245834   T   T   T
  7.0132296114152233  7.0191514933732604 15.4187376456601584   T   T   T
 -0.0217549006200415 -0.0014376879059258 17.3954231089133380   T   T   T
  2.8052918445660895 -0.0048003688723499 17.4364049117335718   T   T   T
  5.6323385897522229 -0.0014376879059258 17.3954231089133380   T   T   T
 -0.0312764017303969  2.7948411963600770 17.3824384524576949   T   T   T
  2.8052918445660895  2.6990424714907406 17.5589588215822907   T   T   T
  5.6418600908625729  2.7948411963600770 17.3824384524576949   T   T   T
 -0.0302745799887129  5.6094139429272740 17.3853839132384778   T   T   T
  2.8052918445660895  5.7159401545458186 17.6055403737600180   T   T   T
  5.6408582691208924  5.6094139429272740 17.3853839132384778   T   T   T
  2.8052918445660895  4.9060811793794352 19.4387565441072354   T   T   T
  2.8052918445660895  5.5179584989473200 20.4954319589552902   T   T   T
  2.8052918445660895  3.5810497205702099 19.4824345002556392   T   T   T
