Au  N  O 
 1.0000000000000000
     8.8201600910041655    0.0000000000000000    0.0000000000000000
     0.0000000000000000    8.8201600910041655    0.0000000000000000
     0.0000000000000000    0.0000000000000000   25.3946583525000023
 Au  N   O  
  54   1   2
Selective dynamics
Cartesian
  1.4700266818340275  1.4700266818340275  7.5000000000000000   F   F   F
  4.4100800455020828  1.4700266818340275  7.5000000000000000   F   F   F
  7.3501334091701374  1.4700266818340275  7.5000000000000000   F   F   F
  1.4700266818340275  4.4100800455020828  7.5000000000000000   F   F   F
  4.4100800455020828  4.4100800455020828  7.5000000000000000   F   F   F
  7.3501334091701374  4.4100800455020828  7.5000000000000000   F   F   F
  1.4700266818340275  7.3501334091701374  7.5000000000000000   F   F   F
  4.4100800455020828  7.3501334091701374  7.5000000000000000   F   F   F
  7.3501334091701374  7.3501334091701374  7.5000000000000000   F   F   F
  0.0000000000000000  0.0000000000000000  9.5789316705000012   F   F   F
  2.9400533636680550  0.0000000000000000  9.5789316705000012   F   F   F
  5.8801067273361101  0.0000000000000000  9.5789316705000012   F   F   F
  0.0000000000000000  2.9400533636680550  9.5789316705000012   F   F   F
  2.9400533636680550  2.9400533636680550  9.5789316705000012   F   F   F
  5.8801067273361101  2.9400533636680550  9.5789316705000012   F   F   F
  0.0000000000000000  5.8801067273361101  9.5789316705000012   F   F   F
  2.9400533636680550  5.8801067273361101  9.5789316705000012   F   F   F
  5.8801067273361101  5.8801067273361101  9.5789316705000012   F   F   F
  1.4700266818340275  1.4700266818340275 11.6578633410000005   F   F   F
  4.4100800455020828  1.4700266818340275 11.6578633410000005   F   F   F
  7.3501334091701374  1.4700266818340275 11.6578633410000005   F   F   F
  1.4700266818340275  4.4100800455020828 11.6578633410000005   F   F   F
  4.4100800455020828  4.4100800455020828 11.6578633410000005   F   F   F
  7.3501334091701374  4.4100800455020828 11.6578633410000005   F   F   F
  1.4700266818340275  7.3501334091701374 11.6578633410000005   F   F   F
  4.4100800455020828  7.3501334091701374 11.6578633410000005   F   F   F
  7.3501334091701374  7.3501334091701374 11.6578633410000005   F   F   F
  0.0000000000000000  0.0000000000000000 13.7367950114999999   F   F   F
  2.9400533636680550  0.0000000000000000 13.7367950114999999   F   F   F
  5.8801067273361101  0.0000000000000000 13.7367950114999999   F   F   F
  0.0000000000000000  2.9400533636680550 13.7367950114999999   F   F   F
  2.9400533636680550  2.9400533636680550 13.7367950114999999   F   F   F
  5.8801067273361101  2.9400533636680550 13.7367950114999999   F   F   F
  0.0000000000000000  5.8801067273361101 13.7367950114999999   F   F   F
  2.9400533636680550  5.8801067273361101 13.7367950114999999   F   F   F
  5.8801067273361101  5.8801067273361101 13.7367950114999999   F   F   F
  1.4833618766481922  1.5017853867559037 15.8859889289837017   T   T   T
  4.3967448506879228  1.5017853867559037 15.8859889289836875   T   T   T
  7.3501334091701374  1.4807622934601596 15.8455820832458620   T   T   T
  1.4844654137342554  4.4254729640597352 15.8822080000003396   T   T   T
  4.3956413136018586  4.4254729640597352 15.8822080000003396   T   T   T
  7.3501334091701374  4.4280196013229869 15.8457077146681016   T   T   T
  1.4837766345667844  7.3494114454045638 15.8826517104997329   T   T   T
  4.3963300927693387  7.3494114454045638 15.8826517104997329   T   T   T
  7.3501334091701374  7.3798104266297777 15.8476828421753790   T   T   T
 -0.0069544784854959  0.0287031188929182 17.9719663415897060   T   T   T
  2.9400533636680550  0.0196953361565918 17.9587427837593410   T   T   T
  5.8870612058215990  0.0287031188929181 17.9719663415897060   T   T   T
 -0.0318292752834120  2.9631713298016624 17.9546063065152914   T   T   T
  2.9400533636680550  2.9469990633934211 18.0378617015903195   T   T   T
  5.9119360026195267  2.9631713298016624 17.9546063065152914   T   T   T
 -0.0337175090954966  5.9149493439264145 17.9523534994828253   T   T   T
  2.9400533636680550  5.9050485978544325 18.0309883380077842   T   T   T
  5.9138242364315987  5.9149493439264145 17.9523534994828253   T   T   T
  2.9400533636680550  4.4530815734287135 21.0117712308549613   T   T   T
  2.9400533636680550  3.3465634767343833 20.4163442263127557   T   T   T
  2.9400533636680550  5.5512839334910460 20.3976953375656578   T   T   T
