Ag  N  O 
 1.0000000000000000
     8.7962652734892650    0.0000000000000000    0.0000000000000000
     0.0000000000000000    8.7962652734892650    0.0000000000000000
     0.0000000000000000    0.0000000000000000   25.3664980399999997
 Ag  N   O  
  54   1   2
Selective dynamics
Cartesian
  1.4660442122482107  1.4660442122482107  7.5000000000000000   F   F   F
  4.3981326367446325  1.4660442122482107  7.5000000000000000   F   F   F
  7.3302210612410530  1.4660442122482107  7.5000000000000000   F   F   F
  1.4660442122482107  4.3981326367446325  7.5000000000000000   F   F   F
  4.3981326367446325  4.3981326367446325  7.5000000000000000   F   F   F
  7.3302210612410530  4.3981326367446325  7.5000000000000000   F   F   F
  1.4660442122482107  7.3302210612410530  7.5000000000000000   F   F   F
  4.3981326367446325  7.3302210612410530  7.5000000000000000   F   F   F
  7.3302210612410530  7.3302210612410530  7.5000000000000000   F   F   F
  0.0000000000000000  0.0000000000000000  9.5732996079999992   F   F   F
  2.9320884244964214  0.0000000000000000  9.5732996079999992   F   F   F
  5.8641768489928427  0.0000000000000000  9.5732996079999992   F   F   F
  0.0000000000000000  2.9320884244964214  9.5732996079999992   F   F   F
  2.9320884244964214  2.9320884244964214  9.5732996079999992   F   F   F
  5.8641768489928427  2.9320884244964214  9.5732996079999992   F   F   F
  0.0000000000000000  5.8641768489928427  9.5732996079999992   F   F   F
  2.9320884244964214  5.8641768489928427  9.5732996079999992   F   F   F
  5.8641768489928427  5.8641768489928427  9.5732996079999992   F   F   F
  1.4660442122482107  1.4660442122482107 11.6465992160000003   F   F   F
  4.3981326367446325  1.4660442122482107 11.6465992160000003   F   F   F
  7.3302210612410530  1.4660442122482107 11.6465992160000003   F   F   F
  1.4660442122482107  4.3981326367446325 11.6465992160000003   F   F   F
  4.3981326367446325  4.3981326367446325 11.6465992160000003   F   F   F
  7.3302210612410530  4.3981326367446325 11.6465992160000003   F   F   F
  1.4660442122482107  7.3302210612410530 11.6465992160000003   F   F   F
  4.3981326367446325  7.3302210612410530 11.6465992160000003   F   F   F
  7.3302210612410530  7.3302210612410530 11.6465992160000003   F   F   F
  0.0000000000000000  0.0000000000000000 13.7198988240000013   F   F   F
  2.9320884244964214  0.0000000000000000 13.7198988240000013   F   F   F
  5.8641768489928427  0.0000000000000000 13.7198988240000013   F   F   F
  0.0000000000000000  2.9320884244964214 13.7198988240000013   F   F   F
  2.9320884244964214  2.9320884244964214 13.7198988240000013   F   F   F
  5.8641768489928427  2.9320884244964214 13.7198988240000013   F   F   F
  0.0000000000000000  5.8641768489928427 13.7198988240000013   F   F   F
  2.9320884244964214  5.8641768489928427 13.7198988240000013   F   F   F
  5.8641768489928427  5.8641768489928427 13.7198988240000013   F   F   F
  1.4767329648021876  1.4749147385821704 15.8910190942670475   T   T   T
  4.3874438841906667  1.4749147385821706 15.8910190942670475   T   T   T
  7.3302210612410530  1.4632355491246272 15.8651169304887620   T   T   T
  1.4791032389080119  4.3938621300697660 15.8858916843510904   T   T   T
  4.3850736100848371  4.3938621300697678 15.8858916843510904   T   T   T
  7.3302210612410530  4.3988770535602351 15.8681988657100064   T   T   T
  1.4762481685958493  7.3158660462890683 15.8893027355035699   T   T   T
  4.3879286803969961  7.3158660462890683 15.8893027355035699   T   T   T
  7.3302210612410530  7.3373953397116525 15.8631685563363369   T   T   T
 -0.0053020644646647 -0.0015863524258489 17.9799138684326358   T   T   T
  2.9320884244964214  0.0026697923799094 17.9680288611214536   T   T   T
  5.8694789134574981 -0.0015863524258490 17.9799138684326358   T   T   T
 -0.0204123789398520  2.9252838636539353 17.9687770659361092   T   T   T
  2.9320884244964214  2.9344393473697639 18.0597104642876900   T   T   T
  5.8845892279326888  2.9252838636539353 17.9687770659361092   T   T   T
 -0.0223446130021586  5.8674129282650984 17.9670939813481780   T   T   T
  2.9320884244964214  5.8650501513348159 18.0436482351483143   T   T   T
  5.8865214619949864  5.8674129282650984 17.9670939813481780   T   T   T
  2.9320884244964214  4.4458898390138479 21.0363803436189194   T   T   T
  2.9320884244964214  3.3467164469791082 20.4081293814959039   T   T   T
  2.9320884244964214  5.5392349742389015 20.3979096008756429   T   T   T
