Cu  N  O 
 1.0000000000000000
     7.7122337857502483    0.0000000000000000    0.0000000000000000
     0.0000000000000000    7.7122337857502483    0.0000000000000000
     0.0000000000000000    0.0000000000000000   24.0889546800000005
 Cu  N   O  
  54   1   2
Selective dynamics
Cartesian
  1.2853722976250412  1.2853722976250412  7.5000000000000000   F   F   F
  3.8561168928751237  1.2853722976250412  7.5000000000000000   F   F   F
  6.4268614881252066  1.2853722976250412  7.5000000000000000   F   F   F
  1.2853722976250412  3.8561168928751237  7.5000000000000000   F   F   F
  3.8561168928751237  3.8561168928751237  7.5000000000000000   F   F   F
  6.4268614881252066  3.8561168928751237  7.5000000000000000   F   F   F
  1.2853722976250412  6.4268614881252066  7.5000000000000000   F   F   F
  3.8561168928751237  6.4268614881252066  7.5000000000000000   F   F   F
  6.4268614881252066  6.4268614881252066  7.5000000000000000   F   F   F
  0.0000000000000000  0.0000000000000000  9.3177909359999997   F   F   F
  2.5707445952500825  0.0000000000000000  9.3177909359999997   F   F   F
  5.1414891905001650  0.0000000000000000  9.3177909359999997   F   F   F
  0.0000000000000000  2.5707445952500825  9.3177909359999997   F   F   F
  2.5707445952500825  2.5707445952500825  9.3177909359999997   F   F   F
  5.1414891905001650  2.5707445952500825  9.3177909359999997   F   F   F
  0.0000000000000000  5.1414891905001650  9.3177909359999997   F   F   F
  2.5707445952500825  5.1414891905001650  9.3177909359999997   F   F   F
  5.1414891905001650  5.1414891905001650  9.3177909359999997   F   F   F
  1.2853722976250412  1.2853722976250412 11.1355818719999995   F   F   F
  3.8561168928751237  1.2853722976250412 11.1355818719999995   F   F   F
  6.4268614881252066  1.2853722976250412 11.1355818719999995   F   F   F
  1.2853722976250412  3.8561168928751237 11.1355818719999995   F   F   F
  3.8561168928751237  3.8561168928751237 11.1355818719999995   F   F   F
  6.4268614881252066  3.8561168928751237 11.1355818719999995   F   F   F
  1.2853722976250412  6.4268614881252066 11.1355818719999995   F   F   F
  3.8561168928751237  6.4268614881252066 11.1355818719999995   F   F   F
  6.4268614881252066  6.4268614881252066 11.1355818719999995   F   F   F
  0.0000000000000000  0.0000000000000000 12.9533728080000010   F   F   F
  2.5707445952500825  0.0000000000000000 12.9533728080000010   F   F   F
  5.1414891905001650  0.0000000000000000 12.9533728080000010   F   F   F
  0.0000000000000000  2.5707445952500825 12.9533728080000010   F   F   F
  2.5707445952500825  2.5707445952500825 12.9533728080000010   F   F   F
  5.1414891905001650  2.5707445952500825 12.9533728080000010   F   F   F
  0.0000000000000000  5.1414891905001650 12.9533728080000010   F   F   F
  2.5707445952500825  5.1414891905001650 12.9533728080000010   F   F   F
  5.1414891905001650  5.1414891905001650 12.9533728080000010   F   F   F
  1.2982038478970681  1.3063348312100915 14.8419002298791618   T   T   T
  3.8407962609985269  1.3051446937902764 14.8424456076063365   T   T   T
  6.4248534401354149  1.2862512880417700 14.8161548913511414   T   T   T
  1.3045483746528921  3.8595629872117576 14.8521573328176029   T   T   T
  3.8287173021255319  3.8591880278525386 14.8522926858017161   T   T   T
  6.4225456343930913  3.8596121960799623 14.8197858339908457   T   T   T
  1.2980526800761982  6.4096677681089131 14.8447592490704388   T   T   T
  3.8401443452300152  6.4100570070859249 14.8453949042105595   T   T   T
  6.4246216261228390  6.4314012661074180 14.8172899878936128   T   T   T
 -0.0044097504723455  0.0033383453977199 16.6217939634467555   T   T   T
  2.5685333342773040  0.0098517540013393 16.6122793636503410   T   T   T
  5.1449846036306583  0.0019762206652753 16.6234729940591492   T   T   T
 -0.0263494062549288  2.5695550918975805 16.6203984562651819   T   T   T
  2.5656233778186808  2.5693993648560642 16.7687098206539460   T   T   T
  5.1590751276177551  2.5687033560685921 16.6205483126530176   T   T   T
 -0.0271749045965094  5.1463479187429195 16.6238040086402670   T   T   T
  2.5656343765916065  5.1641342652454290 16.7759735314686971   T   T   T
  5.1594563448958501  5.1453913359064138 16.6237602345114155   T   T   T
  2.5870892703397166  3.8640096312345231 19.4734162212441682   T   T   T
  2.5837615747145293  2.7716989088671040 18.8174786236406142   T   T   T
  2.5796047270292379  4.9584954196973348 18.8204330941482283   T   T   T
