Ag  N  O  H 
 1.0000000000000000
    11.7283536979856873    0.0000000000000000    0.0000000000000000
     5.8641768489928436   10.1570522470247671    0.0000000000000000
     0.0000000000000000    0.0000000000000000   22.1821205207372749
 Ag  N   O   H  
  64   1   1   3
Selective dynamics
Cartesian
  0.0000000000000000  0.0000000000000000  7.5000000000000000   F   F   F
  2.9320884244964218  0.0000000000000000  7.5000000000000000   F   F   F
  5.8641768489928436  0.0000000000000000  7.5000000000000000   F   F   F
  8.7962652734892650  0.0000000000000000  7.5000000000000000   F   F   F
  1.4660442122482109  2.5392630617561918  7.5000000000000000   F   F   F
  4.3981326367446325  2.5392630617561918  7.5000000000000000   F   F   F
  7.3302210612410548  2.5392630617561918  7.5000000000000000   F   F   F
 10.2623094857374753  2.5392630617561918  7.5000000000000000   F   F   F
  2.9320884244964218  5.0785261235123835  7.5000000000000000   F   F   F
  5.8641768489928436  5.0785261235123835  7.5000000000000000   F   F   F
  8.7962652734892650  5.0785261235123835  7.5000000000000000   F   F   F
 11.7283536979856873  5.0785261235123835  7.5000000000000000   F   F   F
  4.3981326367446325  7.6177891852685757  7.5000000000000000   F   F   F
  7.3302210612410548  7.6177891852685757  7.5000000000000000   F   F   F
 10.2623094857374753  7.6177891852685757  7.5000000000000000   F   F   F
 13.1943979102338975  7.6177891852685757  7.5000000000000000   F   F   F
  1.4660442122482109  0.8464210205853973  9.8940401735790910   F   F   F
  4.3981326367446325  0.8464210205853973  9.8940401735790910   F   F   F
  7.3302210612410548  0.8464210205853973  9.8940401735790910   F   F   F
 10.2623094857374770  0.8464210205853973  9.8940401735790910   F   F   F
  2.9320884244964218  3.3856840823415890  9.8940401735790910   F   F   F
  5.8641768489928436  3.3856840823415890  9.8940401735790910   F   F   F
  8.7962652734892650  3.3856840823415890  9.8940401735790910   F   F   F
 11.7283536979856891  3.3856840823415890  9.8940401735790910   F   F   F
  4.3981326367446325  5.9249471440977812  9.8940401735790910   F   F   F
  7.3302210612410548  5.9249471440977812  9.8940401735790910   F   F   F
 10.2623094857374770  5.9249471440977812  9.8940401735790910   F   F   F
 13.1943979102338993  5.9249471440977812  9.8940401735790910   F   F   F
  5.8641768489928445  8.4642102058539734  9.8940401735790910   F   F   F
  8.7962652734892650  8.4642102058539734  9.8940401735790910   F   F   F
 11.7283536979856891  8.4642102058539734  9.8940401735790910   F   F   F
 14.6604421224821095  8.4642102058539734  9.8940401735790910   F   F   F
  0.0005025765575856  1.6936495469018225 12.3172131129813955   T   T   T
  2.9325910322962341  1.6953302356489355 12.3117636409597999   T   T   T
  5.8645703667296134  1.6908778190896063 12.3079435884028374   T   T   T
  8.7970780935364967  1.6952571251401616 12.3110373792600249   T   T   T
  1.4678536196021776  4.2310800653415361 12.3108362399680509   T   T   T
  4.4112679303894984  4.2406424438976851 12.3448577378454765   T   T   T
  7.3179700417610336  4.2408822735142557 12.3447553018469254   T   T   T
 10.2613452941487946  4.2311237409061722 12.3111108222072758   T   T   T
  2.9314579946911952  6.7733451127771280 12.3112056005594859   T   T   T
  5.8646690355253979  6.7583813472568508 12.3457057218852349   T   T   T
  8.7979841625105752  6.7732800295133346 12.3113411439157296   T   T   T
 11.7289082971567140  6.7713972019109434 12.3179591243417637   T   T   T
  4.4000889758906663  9.3119147709692616 12.3107673587959301   T   T   T
  7.3293649323879988  9.3119671643774993 12.3107063443597458   T   T   T
 10.2632574806663968  9.3117402492270021 12.3197567855927854   T   T   T
 13.1945412177186974  9.3118572700555617 12.3197498159808880   T   T   T
  0.0008920753661166  0.0042781430585057 14.7679329514376985   T   T   T
  2.9332027796618423  0.0027168418980311 14.7687803341436208   T   T   T
  5.8651221117886605  0.0019459751462801 14.7757583501665550   T   T   T
  8.7969848392525751  0.0026252598255247 14.7686729603468532   T   T   T
  1.4663005621333247  2.5402336183630019 14.7654765750211450   T   T   T
  4.3977367923996740  2.5296805460280338 14.7533627966287053   T   T   T
  7.3330980550836715  2.5293209971749864 14.7515684051289302   T   T   T
 10.2640010614270007  2.5401586415217401 14.7655919657965029   T   T   T
  2.9192898332093544  5.0825584689149634 14.7495775721172109   T   T   T
  5.8648193086748295  5.0894981144668368 14.8968878381111356   T   T   T
  8.8101514133469152  5.0823585105440374 14.7502004096523827   T   T   T
 11.7290311715210454  5.0793849431132454 14.7684965859533222   T   T   T
  4.3898634709625535  7.6336878711228877 14.7525124357939337   T   T   T
  7.3400124771211059  7.6337730814692470 14.7524791759292846   T   T   T
 10.2657532889820473  7.6210552103899047 14.7704395472291168   T   T   T
 13.1925438162916056  7.6211306671499326 14.7705173536651184   T   T   T
  5.8618636585490842  5.0765565243471249 17.5242836922068648   T   T   T
  5.9059225007230882  3.7661812625613762 18.1566227816129171   T   T   T
  6.6667764599675960  5.5789931134473241 17.9181146703008238   T   T   T
  5.0222547101455719  5.5221826145404531 17.9143935493099740   T   T   T
  5.9283637298646488  3.1600478073746068 17.3847781571247388   T   T   T
