Cu  N  O  H 
 1.0000000000000000
    10.2829783810003317    0.0000000000000000    0.0000000000000000
     5.1414891905001658    8.9053205045124635    0.0000000000000000
     0.0000000000000000    0.0000000000000000   21.2970125173803737
 Cu  N   O   H  
  64   1   1   3
Selective dynamics
Cartesian
  0.0000000000000000  0.0000000000000000  7.5000000000000009   F   F   F
  2.5707445952500829  0.0000000000000000  7.5000000000000009   F   F   F
  5.1414891905001658  0.0000000000000000  7.5000000000000009   F   F   F
  7.7122337857502483  0.0000000000000000  7.5000000000000009   F   F   F
  1.2853722976250415  2.2263301261281159  7.5000000000000009   F   F   F
  3.8561168928751242  2.2263301261281159  7.5000000000000009   F   F   F
  6.4268614881252075  2.2263301261281159  7.5000000000000009   F   F   F
  8.9976060833752900  2.2263301261281159  7.5000000000000009   F   F   F
  2.5707445952500829  4.4526602522562317  7.5000000000000009   F   F   F
  5.1414891905001658  4.4526602522562317  7.5000000000000009   F   F   F
  7.7122337857502483  4.4526602522562317  7.5000000000000009   F   F   F
 10.2829783810003317  4.4526602522562317  7.5000000000000009   F   F   F
  3.8561168928751242  6.6789903783843476  7.5000000000000009   F   F   F
  6.4268614881252075  6.6789903783843476  7.5000000000000009   F   F   F
  8.9976060833752900  6.6789903783843476  7.5000000000000009   F   F   F
 11.5683506786253734  6.6789903783843476  7.5000000000000009   F   F   F
  1.2853722976250415  0.7421100420427053  9.5990041724601252   F   F   F
  3.8561168928751242  0.7421100420427053  9.5990041724601252   F   F   F
  6.4268614881252075  0.7421100420427053  9.5990041724601252   F   F   F
  8.9976060833752900  0.7421100420427053  9.5990041724601252   F   F   F
  2.5707445952500829  2.9684401681708210  9.5990041724601252   F   F   F
  5.1414891905001658  2.9684401681708210  9.5990041724601252   F   F   F
  7.7122337857502492  2.9684401681708210  9.5990041724601252   F   F   F
 10.2829783810003317  2.9684401681708210  9.5990041724601252   F   F   F
  3.8561168928751246  5.1947702942989373  9.5990041724601252   F   F   F
  6.4268614881252075  5.1947702942989373  9.5990041724601252   F   F   F
  8.9976060833752900  5.1947702942989373  9.5990041724601252   F   F   F
 11.5683506786253734  5.1947702942989373  9.5990041724601252   F   F   F
  5.1414891905001658  7.4211004204270532  9.5990041724601252   F   F   F
  7.7122337857502483  7.4211004204270532  9.5990041724601252   F   F   F
 10.2829783810003317  7.4211004204270532  9.5990041724601252   F   F   F
 12.8537229762504150  7.4211004204270532  9.5990041724601252   F   F   F
  0.0004208445599163  1.4830816207650843 11.6991402935349100   T   T   T
  2.5722781850208891  1.4844864601764660 11.6973337483949784   T   T   T
  5.1420598605648618  1.4846455080257528 11.7004635728486743   T   T   T
  7.7119225858362643  1.4845195252504688 11.6973127658967702   T   T   T
  1.2867515384799921  3.7096970124153028 11.6960957725498123   T   T   T
  3.8735546344566654  3.7193940671442287 11.7397804017752669   T   T   T
  6.4102353391842763  3.7194338936311988 11.7404783140137621   T   T   T
  8.9974081094311931  3.7098276334062374 11.6958713953960221   T   T   T
  2.5733269906442691  5.9356073826579561 11.7008925523035661   T   T   T
  5.1420958188851325  5.9165561151751831 11.7410938472711237   T   T   T
  7.7108678469524214  5.9355646431781830 11.7009231173922235   T   T   T
 10.2835131676474276  5.9366559009952589 11.7014902076723644   T   T   T
  3.8565803222448207  8.1630907914960442 11.6965043310186498   T   T   T
  6.4275030748818347  8.1627921742751717 11.6966364126981084   T   T   T
  8.9991613131811246  8.1628395724741178 11.7020839965828767   T   T   T
 11.5682424917866999  8.1625424492773000 11.7018777988637890   T   T   T
  0.0009890191934781  0.0018098155781034 13.8126776681174306   T   T   T
  2.5714850973441017 -0.0011374670792891 13.8168203144376331   T   T   T
  5.1427045894683525 -0.0024809543696163 13.8218986062499649   T   T   T
  7.7134759059978064 -0.0010349371718051 13.8174563106213881   T   T   T
  1.2843344016010592  2.2246800362416197 13.8091308729638040   T   T   T
  3.8510039285979194  2.2074143006948130 13.8014181848178534   T   T   T
  6.4343881565530427  2.2070251209632215 13.8004100218982018   T   T   T
  9.0005389341958359  2.2249414283569315 13.8092357845701681   T   T   T
  2.5523843236853594  4.4552909490103234 13.7980690721064523   T   T   T
  5.1418024511731435  4.4584199823475501 14.0432723342216601   T   T   T
  7.7319171014376931  4.4552136306745922 13.7983705146941897   T   T   T
 10.2838687390366470  4.4510452699025373 13.8162480189756156   T   T   T
  3.8452391697477628  6.6955111129005536 13.8018337956411727   T   T   T
  6.4394631700903888  6.6951782193908604 13.8019125219813201   T   T   T
  9.0022073211584814  6.6800699647242823 13.8174795762877149   T   T   T
 11.5657631961391960  6.6800820474548486 13.8175864865921749   T   T   T
  5.1390067315652121  4.4600357916126461 16.2470127785472016   T   T   T
  5.1859955108953875  3.1681585696674421 16.9140191245900304   T   T   T
  5.9453521490763448  4.9747427720289883 16.6215476970037841   T   T   T
  4.2967123850871429  4.9148241240735029 16.6205126610696574   T   T   T
  5.2018805210679542  2.5364353326477773 16.1560488468559491   T   T   T
