Pd  N  O  H 
 1.0000000000000000
    11.1449118996936107    0.0000000000000000    0.0000000000000000
     5.5724559498468054    9.6517768280741532    0.0000000000000000
     0.0000000000000000    0.0000000000000000   21.8248368456304220
 Pd  N   O   H  
  64   1   1   3
Selective dynamics
Cartesian
  0.0000000000000000  0.0000000000000000  7.5000000000000000   F   F   F
  2.7862279749234027  0.0000000000000000  7.5000000000000000   F   F   F
  5.5724559498468054  0.0000000000000000  7.5000000000000000   F   F   F
  8.3586839247702081  0.0000000000000000  7.5000000000000000   F   F   F
  1.3931139874617013  2.4129442070185383  7.5000000000000000   F   F   F
  4.1793419623851040  2.4129442070185383  7.5000000000000000   F   F   F
  6.9655699373085067  2.4129442070185383  7.5000000000000000   F   F   F
  9.7517979122319094  2.4129442070185383  7.5000000000000000   F   F   F
  2.7862279749234027  4.8258884140370766  7.5000000000000000   F   F   F
  5.5724559498468054  4.8258884140370766  7.5000000000000000   F   F   F
  8.3586839247702081  4.8258884140370766  7.5000000000000000   F   F   F
 11.1449118996936107  4.8258884140370766  7.5000000000000000   F   F   F
  4.1793419623851040  7.2388326210556144  7.5000000000000000   F   F   F
  6.9655699373085067  7.2388326210556144  7.5000000000000000   F   F   F
  9.7517979122319094  7.2388326210556144  7.5000000000000000   F   F   F
 12.5380258871553121  7.2388326210556144  7.5000000000000000   F   F   F
  1.3931139874617013  0.8043147356728461  9.7749456152101395   F   F   F
  4.1793419623851040  0.8043147356728461  9.7749456152101395   F   F   F
  6.9655699373085067  0.8043147356728461  9.7749456152101395   F   F   F
  9.7517979122319094  0.8043147356728461  9.7749456152101395   F   F   F
  2.7862279749234027  3.2172589426913842  9.7749456152101395   F   F   F
  5.5724559498468054  3.2172589426913842  9.7749456152101395   F   F   F
  8.3586839247702081  3.2172589426913842  9.7749456152101395   F   F   F
 11.1449118996936107  3.2172589426913842  9.7749456152101395   F   F   F
  4.1793419623851040  5.6302031497099234  9.7749456152101395   F   F   F
  6.9655699373085067  5.6302031497099234  9.7749456152101395   F   F   F
  9.7517979122319094  5.6302031497099234  9.7749456152101395   F   F   F
 12.5380258871553121  5.6302031497099234  9.7749456152101395   F   F   F
  5.5724559498468054  8.0431473567284613  9.7749456152101395   F   F   F
  8.3586839247702081  8.0431473567284613  9.7749456152101395   F   F   F
 11.1449118996936107  8.0431473567284613  9.7749456152101395   F   F   F
 13.9311398746170134  8.0431473567284613  9.7749456152101395   F   F   F
  0.0003348331044455  1.6077399233107368 12.0713516606003939   T   T   T
  2.7887391942580630  1.6099723382669786 12.0686453232288180   T   T   T
  5.5727861817307494  1.6072747912532437 12.0766102026884923   T   T   T
  8.3572599809216257  1.6100525427255243 12.0680967184887891   T   T   T
  1.3981689114162248  4.0220141012877937 12.0697197587643252   T   T   T
  4.1928520961570515  4.0280299964683559 12.1221476305943305   T   T   T
  6.9525832450409357  4.0283305519910391 12.1225803946100257   T   T   T
  9.7465835876210996  4.0222254740657570 12.0698683759934511   T   T   T
  2.7871693025505211  6.4342701651924514 12.0757224015363782   T   T   T
  5.5729803127354103  6.4208916904893769 12.1243248676501949   T   T   T
  8.3582124551089390  6.4341765831622748 12.0757314237457223   T   T   T
 11.1448731199372499  6.4337023936917372 12.0696173671355726   T   T   T
  4.1818706011762341  8.8419408455255919 12.0707250651492011   T   T   T
  6.9639679861948016  8.8419197254939714 12.0706074345451508   T   T   T
  9.7520697097098612  8.8457385217310591 12.0706603903055090   T   T   T
 12.5380211824757541  8.8460207404024516 12.0707248088365979   T   T   T
  0.0005520780938456  0.0022062182176397 14.3942942959242437   T   T   T
  2.7878895548861009 -0.0015543768000123 14.3911411404655922   T   T   T
  5.5729368070740035 -0.0048512048041895 14.3975856113270044   T   T   T
  8.3580084747954437 -0.0012364509213148 14.3914065612066313   T   T   T
  1.3917494776881574  2.4106708483720323 14.3920803202134930   T   T   T
  4.1681560728592588  2.3906179571019233 14.3984417543526941   T   T   T
  6.9779814319520206  2.3901715414323235 14.3980880373584146   T   T   T
  9.7537740043169094  2.4107185876695350 14.3920417426241727   T   T   T
  2.7616864200824272  4.8253866071727485 14.3966509830222300   T   T   T
  5.5728834887696443  4.8321403822001363 14.5573479651498676   T   T   T
  8.3837045495364055  4.8252098347496393 14.3968843510149842   T   T   T
 11.1452364401934556  4.8269852838502825 14.3897095606159127   T   T   T
  4.1679381324346254  7.2617442180803966 14.4017929012956891   T   T   T
  6.9780448995782978  7.2617681333644999 14.4012922678296835   T   T   T
  9.7557294398623586  7.2403873273150818 14.3941661411491868   T   T   T
 12.5349462018271165  7.2405115439801531 14.3945362746170353   T   T   T
  5.5695723878261347  4.8281739884348864 16.7314462151576571   T   T   T
  5.6194379212040566  3.5498591466188052 17.4173610778628820   T   T   T
  6.3775974380673723  5.3540299924000481 17.0826036752982766   T   T   T
  4.7206524284166198  5.2873950726666346 17.0791960608358870   T   T   T
  5.6472174810430040  2.9051094124414747 16.6692464126912512   T   T   T
