Au  N  O  H 
 1.0000000000000000
    11.7602134546722201    0.0000000000000000    0.0000000000000000
     5.8801067273361101   10.1846436056736955    0.0000000000000000
     0.0000000000000000    0.0000000000000000   22.2016305575400814
 Au  N   O   H  
  64   1   1   3
Selective dynamics
Cartesian
  0.0000000000000000  0.0000000000000000  7.5000000000000000   F   F   F
  2.9400533636680550  0.0000000000000000  7.5000000000000000   F   F   F
  5.8801067273361101  0.0000000000000000  7.5000000000000000   F   F   F
  8.8201600910041655  0.0000000000000000  7.5000000000000000   F   F   F
  1.4700266818340275  2.5461609014184239  7.5000000000000000   F   F   F
  4.4100800455020828  2.5461609014184239  7.5000000000000000   F   F   F
  7.3501334091701374  2.5461609014184239  7.5000000000000000   F   F   F
 10.2901867728381937  2.5461609014184239  7.5000000000000000   F   F   F
  2.9400533636680550  5.0923218028368478  7.5000000000000000   F   F   F
  5.8801067273361101  5.0923218028368478  7.5000000000000000   F   F   F
  8.8201600910041655  5.0923218028368478  7.5000000000000000   F   F   F
 11.7602134546722201  5.0923218028368478  7.5000000000000000   F   F   F
  4.4100800455020828  7.6384827042552716  7.5000000000000000   F   F   F
  7.3501334091701374  7.6384827042552716  7.5000000000000000   F   F   F
 10.2901867728381937  7.6384827042552716  7.5000000000000000   F   F   F
 13.2302401365062483  7.6384827042552716  7.5000000000000000   F   F   F
  1.4700266818340275  0.8487203004728079  9.9005435191800277   F   F   F
  4.4100800455020828  0.8487203004728079  9.9005435191800277   F   F   F
  7.3501334091701382  0.8487203004728079  9.9005435191800277   F   F   F
 10.2901867728381937  0.8487203004728079  9.9005435191800277   F   F   F
  2.9400533636680550  3.3948812018912315  9.9005435191800277   F   F   F
  5.8801067273361101  3.3948812018912315  9.9005435191800277   F   F   F
  8.8201600910041655  3.3948812018912315  9.9005435191800277   F   F   F
 11.7602134546722219  3.3948812018912315  9.9005435191800277   F   F   F
  4.4100800455020828  5.9410421033096563  9.9005435191800277   F   F   F
  7.3501334091701374  5.9410421033096563  9.9005435191800277   F   F   F
 10.2901867728381937  5.9410421033096563  9.9005435191800277   F   F   F
 13.2302401365062483  5.9410421033096563  9.9005435191800277   F   F   F
  5.8801067273361109  8.4872030047280802  9.9005435191800277   F   F   F
  8.8201600910041655  8.4872030047280802  9.9005435191800277   F   F   F
 11.7602134546722219  8.4872030047280802  9.9005435191800277   F   F   F
 14.7002668183402765  8.4872030047280802  9.9005435191800277   F   F   F
 -0.0000393345653066  1.6954241508056027 12.3252237014533730   T   T   T
  2.9372795734499615  1.6977559898714869 12.3093026333687767   T   T   T
  5.8810039225882473  1.6875944147521469 12.3047533615317626   T   T   T
  8.8230926150108395  1.6977446660329183 12.3098077250937461   T   T   T
  1.4663801703257173  4.2381075026933575 12.3059753809678298   T   T   T
  4.4216998580138904  4.2510028639999478 12.3416760364600524   T   T   T
  7.3382315855091296  4.2500034364781776 12.3421841257593865   T   T   T
 10.2936329997828082  4.2379715844921098 12.3061250018064037   T   T   T
  2.9330223156444988  6.7974109270768119 12.3057427144659179   T   T   T
  5.8802438859364656  6.7785059872561249 12.3486878601083596   T   T   T
  8.8272161392813686  6.7968289225711116 12.3058931257804964   T   T   T
 11.7601926579168481  6.7895279080082460 12.3247554014416902   T   T   T
  4.4131186471868240  9.3434785518114332 12.3083945840282691   T   T   T
  7.3476569723429028  9.3431147866580382 12.3081037231672035   T   T   T
 10.2913172459236861  9.3360609520878839 12.3265004998483736   T   T   T
 13.2298529419785780  9.3356319712001348 12.3264414393438155   T   T   T
  0.0005918878026182  0.0082387649706105 14.8081365300317209   T   T   T
  2.9406155386903814  0.0046380339808442 14.8029004923951160   T   T   T
  5.8808435303322595 -0.0058969687176763 14.8114208324566174   T   T   T
  8.8205133714714847  0.0047930744839816 14.8035414940956400   T   T   T
  1.4702753308888776  2.5468127062828509 14.7958328199876217   T   T   T
  4.4062478076530160  2.5231924734381006 14.7563822036490819   T   T   T
  7.3545775281820287  2.5229980543501949 14.7611070876425714   T   T   T
 10.2905751612179071  2.5463754234602938 14.7962199493119755   T   T   T
  2.9122027522464373  5.1011571902662753 14.7454397874610468   T   T   T
  5.8798514616174424  5.1106813875436172 14.8366898326130823   T   T   T
  8.8469356628378488  5.1001919718605802 14.7457458682067593   T   T   T
 11.7598705281482481  5.0890691982141005 14.8002842233744278   T   T   T
  4.3899978594552405  7.6706226453160804 14.7589170994807493   T   T   T
  7.3703576921680858  7.6706107074086027 14.7586880395184519   T   T   T
 10.2971863257144296  7.6421161820178947 14.8085501401918140   T   T   T
 13.2232670977947482  7.6422594769697509 14.8094266454315608   T   T   T
  5.8781111100847383  5.0776037033950088 17.3548131104902765   T   T   T
  5.9243347333863854  3.7949190689807049 18.0189176355846783   T   T   T
  6.6856293494243380  5.6004067374610109 17.7134451138727762   T   T   T
  5.0300457081002232  5.5356803291810284 17.7078571373447033   T   T   T
  5.9688765812093774  3.1635375914564197 17.2675326114640662   T   T   T
