Ir  N  O  H 
 1.0000000000000000
    10.9538490905188866    0.0000000000000000    0.0000000000000000
     5.4769245452594433    9.4863115816104226    0.0000000000000000
     0.0000000000000000    0.0000000000000000   21.7078352478052139
 Ir  N   O   H  
  64   1   1   3
Selective dynamics
Cartesian
  0.0000000000000000  0.0000000000000000  7.4999999999999991   F   F   F
  2.7384622726297216  0.0000000000000000  7.4999999999999991   F   F   F
  5.4769245452594433  0.0000000000000000  7.4999999999999991   F   F   F
  8.2153868178891649  0.0000000000000000  7.4999999999999991   F   F   F
  1.3692311363148608  2.3715778954026057  7.4999999999999991   F   F   F
  4.1076934089445825  2.3715778954026057  7.4999999999999991   F   F   F
  6.8461556815743041  2.3715778954026057  7.4999999999999991   F   F   F
  9.5846179542040257  2.3715778954026057  7.4999999999999991   F   F   F
  2.7384622726297216  4.7431557908052113  7.4999999999999991   F   F   F
  5.4769245452594433  4.7431557908052113  7.4999999999999991   F   F   F
  8.2153868178891649  4.7431557908052113  7.4999999999999991   F   F   F
 10.9538490905188866  4.7431557908052113  7.4999999999999991   F   F   F
  4.1076934089445825  7.1147336862078170  7.4999999999999991   F   F   F
  6.8461556815743041  7.1147336862078170  7.4999999999999991   F   F   F
  9.5846179542040257  7.1147336862078170  7.4999999999999991   F   F   F
 12.3230802268337474  7.1147336862078170  7.4999999999999991   F   F   F
  1.3692311363148608  0.7905259651342018  9.7359450826017380   F   F   F
  4.1076934089445825  0.7905259651342018  9.7359450826017380   F   F   F
  6.8461556815743041  0.7905259651342018  9.7359450826017380   F   F   F
  9.5846179542040257  0.7905259651342018  9.7359450826017380   F   F   F
  2.7384622726297216  3.1621038605368073  9.7359450826017380   F   F   F
  5.4769245452594433  3.1621038605368073  9.7359450826017380   F   F   F
  8.2153868178891649  3.1621038605368073  9.7359450826017380   F   F   F
 10.9538490905188866  3.1621038605368073  9.7359450826017380   F   F   F
  4.1076934089445825  5.5336817559394138  9.7359450826017380   F   F   F
  6.8461556815743041  5.5336817559394138  9.7359450826017380   F   F   F
  9.5846179542040257  5.5336817559394138  9.7359450826017380   F   F   F
 12.3230802268337474  5.5336817559394138  9.7359450826017380   F   F   F
  5.4769245452594433  7.9052596513420195  9.7359450826017380   F   F   F
  8.2153868178891649  7.9052596513420195  9.7359450826017380   F   F   F
 10.9538490905188866  7.9052596513420195  9.7359450826017380   F   F   F
 13.6923113631486082  7.9052596513420195  9.7359450826017380   F   F   F
  0.0001283333910865  1.5789852971901051 11.9433109927756238   T   T   T
  2.7386049272686921  1.5805967007267465 11.9406531189434677   T   T   T
  5.4769863923008861  1.5841643581154417 11.9486227703508217   T   T   T
  8.2156877585943597  1.5802905923257775 11.9398488278715362   T   T   T
  1.3714609138413154  3.9506894082236421 11.9415629801960890   T   T   T
  4.1192665863588287  3.9575123583981031 11.9727260654046521   T   T   T
  6.8343441859136904  3.9575315058654743 11.9726622297469980   T   T   T
  9.5822226944249440  3.9507136263952116 11.9416135717653979   T   T   T
  2.7429047994468090  6.3201527039831289 11.9472565071330621   T   T   T
  5.4769784079769979  6.3109503465236561 11.9695883462295747   T   T   T
  8.2109254511368075  6.3201011001261751 11.9472223968752118   T   T   T
 10.9538317293368053  6.3225395800987254 11.9458907615680250   T   T   T
  4.1095610149176993  8.6921679594008108 11.9415386023531980   T   T   T
  6.8444141393377818  8.6923467692900953 11.9414425257539651   T   T   T
  9.5846744304991738  8.6937241519822024 11.9462362821593349   T   T   T
 12.3230012414840235  8.6936084720394131 11.9461746824274559   T   T   T
  0.0000349233550538 -0.0018844962403752 14.1531787700582896   T   T   T
  2.7356086287896177 -0.0028329590723043 14.1540775333434006   T   T   T
  5.4769991313597659 -0.0063593357529170 14.1559466590033090   T   T   T
  8.2182675535465233 -0.0029612240363694 14.1537146795498820   T   T   T
  1.3688421605994103  2.3677434060117162 14.1524405469756065   T   T   T
  4.0991000437176801  2.3469652444454328 14.1538319533797718   T   T   T
  6.8551822220735543  2.3470136423990957 14.1533343740845545   T   T   T
  9.5848719344436759  2.3676238513884948 14.1521440167751589   T   T   T
  2.7137906417360780  4.7448086853981337 14.1515140388380942   T   T   T
  5.4770203600947145  4.7398650619567597 14.2745984185702870   T   T   T
  8.2397283510162573  4.7448943661632734 14.1516673837704801   T   T   T
 10.9537411749695526  4.7372109747214219 14.1539038974257050   T   T   T
  4.0931185956065983  7.1282496108740787 14.1528839996851747   T   T   T
  6.8609780346286957  7.1284667475501768 14.1527451312969603   T   T   T
  9.5860205383935053  7.1126955474400493 14.1549627238217841   T   T   T
 12.3215441338851974  7.1125746816547197 14.1548884237627064   T   T   T
  5.4726982884605428  4.7945921986606814 16.4421175536359563   T   T   T
  5.5136342480745828  3.5581900628188361 17.1948072661563849   T   T   T
  6.2871182492314146  5.3336157318309576 16.7596641408332161   T   T   T
  4.6232128071196259  5.2780880277904290 16.7572056395682267   T   T   T
  5.5261585413023875  2.8723398121655674 16.4799449277576251   T   T   T
