Pt  N  O  H 
 1.0000000000000000
    11.2211673782643580    0.0000000000000000    0.0000000000000000
     5.6105836891321790    9.7178160096941610    0.0000000000000000
     0.0000000000000000    0.0000000000000000   21.8715335987779369
 Pt  N   O   H  
  64   1   1   3
Selective dynamics
Cartesian
  0.0000000000000000  0.0000000000000000  7.4999999999999991   F   F   F
  2.8052918445660895  0.0000000000000000  7.4999999999999991   F   F   F
  5.6105836891321790  0.0000000000000000  7.4999999999999991   F   F   F
  8.4158755336982694  0.0000000000000000  7.4999999999999991   F   F   F
  1.4026459222830447  2.4294540024235403  7.4999999999999991   F   F   F
  4.2079377668491347  2.4294540024235403  7.4999999999999991   F   F   F
  7.0132296114152233  2.4294540024235403  7.4999999999999991   F   F   F
  9.8185214559813137  2.4294540024235403  7.4999999999999991   F   F   F
  2.8052918445660895  4.8589080048470805  7.4999999999999991   F   F   F
  5.6105836891321790  4.8589080048470805  7.4999999999999991   F   F   F
  8.4158755336982694  4.8589080048470805  7.4999999999999991   F   F   F
 11.2211673782643580  4.8589080048470805  7.4999999999999991   F   F   F
  4.2079377668491347  7.2883620072706208  7.4999999999999991   F   F   F
  7.0132296114152242  7.2883620072706208  7.4999999999999991   F   F   F
  9.8185214559813137  7.2883620072706208  7.4999999999999991   F   F   F
 12.6238133005474040  7.2883620072706208  7.4999999999999991   F   F   F
  1.4026459222830447  0.8098180008078467  9.7905111995926450   F   F   F
  4.2079377668491338  0.8098180008078467  9.7905111995926450   F   F   F
  7.0132296114152242  0.8098180008078467  9.7905111995926450   F   F   F
  9.8185214559813137  0.8098180008078467  9.7905111995926450   F   F   F
  2.8052918445660895  3.2392720032313869  9.7905111995926450   F   F   F
  5.6105836891321790  3.2392720032313869  9.7905111995926450   F   F   F
  8.4158755336982694  3.2392720032313869  9.7905111995926450   F   F   F
 11.2211673782643580  3.2392720032313869  9.7905111995926450   F   F   F
  4.2079377668491347  5.6687260056549276  9.7905111995926450   F   F   F
  7.0132296114152233  5.6687260056549276  9.7905111995926450   F   F   F
  9.8185214559813137  5.6687260056549276  9.7905111995926450   F   F   F
 12.6238133005474040  5.6687260056549276  9.7905111995926450   F   F   F
  5.6105836891321790  8.0981800080784687  9.7905111995926450   F   F   F
  8.4158755336982694  8.0981800080784687  9.7905111995926450   F   F   F
 11.2211673782643580  8.0981800080784687  9.7905111995926450   F   F   F
 14.0264592228304483  8.0981800080784687  9.7905111995926450   F   F   F
  0.0000685192008632  1.6178137512603459 12.0817095322952621   T   T   T
  2.8049887243934748  1.6217373907328687 12.0719861502192121   T   T   T
  5.6107950778283904  1.6168353572928376 12.0839917261594483   T   T   T
  8.4166643603584976  1.6215707018485712 12.0713612729384216   T   T   T
  1.4059149393874510  4.0457703626307300 12.0732733709170574   T   T   T
  4.2234839107505309  4.0565459918378943 12.1311925434909309   T   T   T
  6.9973429915443406  4.0563315752828961 12.1319174917305670   T   T   T
  9.8150910535885725  4.0459155950018086 12.0731574083093172   T   T   T
  2.8064690782335551  6.4782540562309823 12.0848798285684769   T   T   T
  5.6106042467825255  6.4582310309706727 12.1358344006647254   T   T   T
  8.4148028024123640  6.4781104320148675 12.0845921830365910   T   T   T
 11.2212588876565267  6.4746566233896710 12.0806671075692620   T   T   T
  4.2121462406430838  8.9037523257166793 12.0748250085892312   T   T   T
  7.0090627556838596  8.9040151653247239 12.0745385598498576   T   T   T
  9.8159920350380787  8.9074752825578365 12.0808512853438792   T   T   T
 12.6264112767367784  8.9074456594186930 12.0808567801818185   T   T   T
 -0.0000689995419922  0.0023948869135402 14.4131180027714478   T   T   T
  2.8035291433909086 -0.0027241937683089 14.4094987332703468   T   T   T
  5.6104556189893309 -0.0098438642324143 14.4136886722133184   T   T   T
  8.4173474314432024 -0.0023543895565607 14.4093064113497018   T   T   T
  1.3996995109355090  2.4252620224487953 14.4098917587942594   T   T   T
  4.1919923187019208  2.3992582999612808 14.4061902410283977   T   T   T
  7.0278830236104772  2.3992002801759966 14.4082674978183274   T   T   T
  9.8207153153955762  2.4250391438271501 14.4097439058749153   T   T   T
  2.7732790443603212  4.8575660884748508 14.4065914085805229   T   T   T
  5.6103569498447232  4.8636175394228456 14.5672089613760534   T   T   T
  8.4473494628224675  4.8573750627208634 14.4069854760876410   T   T   T
 11.2211533535652439  4.8565310740817420 14.4099180270851601   T   T   T
  4.1924122101482437  7.3136112314001904 14.4146929511020598   T   T   T
  7.0288051545167374  7.3138059978860728 14.4144281391661693   T   T   T
  9.8231616176291112  7.2889138964261804 14.4138308650365126   T   T   T
 12.6194056620038833  7.2890957665996128 14.4138389775423175   T   T   T
  5.6074090901446754  4.8671962314913992 16.6943158512703391   T   T   T
  5.6564255293257508  3.6040247119038020 17.3930652433903497   T   T   T
  6.4205308799940592  5.3999544792679801 17.0247167347344082   T   T   T
  4.7517617456066743  5.3309149872159187 17.0218250200799659   T   T   T
  5.6988286979974214  2.9453724484961432 16.6544215107241484   T   T   T
