Cu  N  H 
 1.0000000000000000
    10.2829783810003317    0.0000000000000000    0.0000000000000000
     5.1414891905001658    8.9053205045124635    0.0000000000000000
     0.0000000000000000    0.0000000000000000   21.2970125173803737
 Cu  N   H  
  64   1   2
Selective dynamics
Cartesian
  0.0000000000000000  0.0000000000000000  7.5000000000000009   F   F   F
  2.5707445952500829  0.0000000000000000  7.5000000000000009   F   F   F
  5.1414891905001658  0.0000000000000000  7.5000000000000009   F   F   F
  7.7122337857502483  0.0000000000000000  7.5000000000000009   F   F   F
  1.2853722976250415  2.2263301261281159  7.5000000000000009   F   F   F
  3.8561168928751242  2.2263301261281159  7.5000000000000009   F   F   F
  6.4268614881252075  2.2263301261281159  7.5000000000000009   F   F   F
  8.9976060833752900  2.2263301261281159  7.5000000000000009   F   F   F
  2.5707445952500829  4.4526602522562317  7.5000000000000009   F   F   F
  5.1414891905001658  4.4526602522562317  7.5000000000000009   F   F   F
  7.7122337857502483  4.4526602522562317  7.5000000000000009   F   F   F
 10.2829783810003317  4.4526602522562317  7.5000000000000009   F   F   F
  3.8561168928751242  6.6789903783843476  7.5000000000000009   F   F   F
  6.4268614881252075  6.6789903783843476  7.5000000000000009   F   F   F
  8.9976060833752900  6.6789903783843476  7.5000000000000009   F   F   F
 11.5683506786253734  6.6789903783843476  7.5000000000000009   F   F   F
  1.2853722976250415  0.7421100420427053  9.5990041724601252   F   F   F
  3.8561168928751242  0.7421100420427053  9.5990041724601252   F   F   F
  6.4268614881252075  0.7421100420427053  9.5990041724601252   F   F   F
  8.9976060833752900  0.7421100420427053  9.5990041724601252   F   F   F
  2.5707445952500829  2.9684401681708210  9.5990041724601252   F   F   F
  5.1414891905001658  2.9684401681708210  9.5990041724601252   F   F   F
  7.7122337857502492  2.9684401681708210  9.5990041724601252   F   F   F
 10.2829783810003317  2.9684401681708210  9.5990041724601252   F   F   F
  3.8561168928751246  5.1947702942989373  9.5990041724601252   F   F   F
  6.4268614881252075  5.1947702942989373  9.5990041724601252   F   F   F
  8.9976060833752900  5.1947702942989373  9.5990041724601252   F   F   F
 11.5683506786253734  5.1947702942989373  9.5990041724601252   F   F   F
  5.1414891905001658  7.4211004204270532  9.5990041724601252   F   F   F
  7.7122337857502483  7.4211004204270532  9.5990041724601252   F   F   F
 10.2829783810003317  7.4211004204270532  9.5990041724601252   F   F   F
 12.8537229762504150  7.4211004204270532  9.5990041724601252   F   F   F
  0.0069110972331805  1.4802402558885286 11.6806802931597247   T   T   T
  2.5792483797764869  1.4784215971655459 11.6982392230641619   T   T   T
  5.1691742739799409  1.5042998521951532 11.7554434364227358   T   T   T
  7.6962554561140788  1.4946295961292373 11.7193665951785420   T   T   T
  1.2817938237533897  3.7096659325083534 11.6984717092999038   T   T   T
  3.8507518211207290  3.7058342574208107 11.6872114568913759   T   T   T
  6.4386468754497690  3.7037803454154381 11.7370721502210227   T   T   T
  8.9806737131344754  3.7192316345759697 11.7192765095296068   T   T   T
  2.5660312689115563  5.9396177616567503 11.7090036738475405   T   T   T
  5.1429258744898769  5.9439580202462023 11.6872032130801813   T   T   T
  7.7087279440976175  5.9029546905414492 11.7553568038210887   T   T   T
 10.2785623699648188  5.9391648638451660 11.7068556960446841   T   T   T
  3.8550822415359480  8.1668082941632285 11.6985025916018408   T   T   T
  6.4361919879975842  8.1588035330549076 11.6982325759032300   T   T   T
  8.9996265569270424  8.1621160955756924 11.7005894084593898   T   T   T
 11.5642120753069779  8.1659584989436098 11.7068773714806262   T   T   T
  0.0076724993269567 -0.0054079942838758 13.8093973744762035   T   T   T
  2.5740168968675512 -0.0017932348742671 13.8155878650534447   T   T   T
  5.1372393478251723 -0.0023739648661143 13.8208462490743429   T   T   T
  7.7128181174820041 -0.0097045785175280 13.8031329448167508   T   T   T
  1.2939379102954376  2.2224707443496401 13.8093637455583576   T   T   T
  3.8353261163547669  2.2319326247412294 13.8070862312820530   T   T   T
  6.4102521705449913  2.2119536921001441 14.0026163068436205   T   T   T
  9.0567175281936407  2.1923024250850265 13.7372766687706864   T   T   T
  2.5534115534683917  4.4555820218461495 13.8180844670953000   T   T   T
  5.0751740342001916  4.4910083049896086 13.7345825615035100   T   T   T
  7.7165796345414694  4.4744629881547056 14.0021164536464280   T   T   T
 10.2917927760652770  4.4571438779552501 13.8030140365712803   T   T   T
  3.8449705106739880  6.6926431486313804 13.8180647987927543   T   T   T
  6.4116714899047169  6.6943654289683172 13.8070503850000872   T   T   T
  8.9976555860223719  6.6840800560203268 13.8207625449554783   T   T   T
 11.5626676298718696  6.6823619062316570 13.8221984340739397   T   T   T
  7.0722138110407444  3.3385269391180605 15.5292893746860337   T   T   T
  7.7854932136404820  2.9269025264181137 16.1343145190435031   T   T   T
  6.3621707544191928  3.7488608423986269 16.1389906322171299   T   T   T
