Ag  N  H 
 1.0000000000000000
    11.7283536979856873    0.0000000000000000    0.0000000000000000
     5.8641768489928436   10.1570522470247671    0.0000000000000000
     0.0000000000000000    0.0000000000000000   22.1821205207372749
 Ag  N   H  
  64   1   2
Selective dynamics
Cartesian
  0.0000000000000000  0.0000000000000000  7.5000000000000000   F   F   F
  2.9320884244964218  0.0000000000000000  7.5000000000000000   F   F   F
  5.8641768489928436  0.0000000000000000  7.5000000000000000   F   F   F
  8.7962652734892650  0.0000000000000000  7.5000000000000000   F   F   F
  1.4660442122482109  2.5392630617561918  7.5000000000000000   F   F   F
  4.3981326367446325  2.5392630617561918  7.5000000000000000   F   F   F
  7.3302210612410548  2.5392630617561918  7.5000000000000000   F   F   F
 10.2623094857374753  2.5392630617561918  7.5000000000000000   F   F   F
  2.9320884244964218  5.0785261235123835  7.5000000000000000   F   F   F
  5.8641768489928436  5.0785261235123835  7.5000000000000000   F   F   F
  8.7962652734892650  5.0785261235123835  7.5000000000000000   F   F   F
 11.7283536979856873  5.0785261235123835  7.5000000000000000   F   F   F
  4.3981326367446325  7.6177891852685757  7.5000000000000000   F   F   F
  7.3302210612410548  7.6177891852685757  7.5000000000000000   F   F   F
 10.2623094857374753  7.6177891852685757  7.5000000000000000   F   F   F
 13.1943979102338975  7.6177891852685757  7.5000000000000000   F   F   F
  1.4660442122482109  0.8464210205853973  9.8940401735790910   F   F   F
  4.3981326367446325  0.8464210205853973  9.8940401735790910   F   F   F
  7.3302210612410548  0.8464210205853973  9.8940401735790910   F   F   F
 10.2623094857374770  0.8464210205853973  9.8940401735790910   F   F   F
  2.9320884244964218  3.3856840823415890  9.8940401735790910   F   F   F
  5.8641768489928436  3.3856840823415890  9.8940401735790910   F   F   F
  8.7962652734892650  3.3856840823415890  9.8940401735790910   F   F   F
 11.7283536979856891  3.3856840823415890  9.8940401735790910   F   F   F
  4.3981326367446325  5.9249471440977812  9.8940401735790910   F   F   F
  7.3302210612410548  5.9249471440977812  9.8940401735790910   F   F   F
 10.2623094857374770  5.9249471440977812  9.8940401735790910   F   F   F
 13.1943979102338993  5.9249471440977812  9.8940401735790910   F   F   F
  5.8641768489928445  8.4642102058539734  9.8940401735790910   F   F   F
  8.7962652734892650  8.4642102058539734  9.8940401735790910   F   F   F
 11.7283536979856891  8.4642102058539734  9.8940401735790910   F   F   F
 14.6604421224821095  8.4642102058539734  9.8940401735790910   F   F   F
  0.0038688483959911  1.6906389024540598 12.2880616529943261   T   T   T
  2.9401649847671267  1.6859317465814965 12.3021135843632869   T   T   T
  5.8965696893526243  1.7133549415395091 12.3736880132179188   T   T   T
  8.7815887439589151  1.7043568230175656 12.3357568185583943   T   T   T
  1.4664689443119199  4.2313727863862427 12.3040240295887866   T   T   T
  4.3968237882233172  4.2255331775059206 12.2984717740632252   T   T   T
  7.3434717670480678  4.2244980325478600 12.3563112247592226   T   T   T
 10.2450499522857346  4.2391133878375546 12.3357141783159197   T   T   T
  2.9282864015689691  6.7736079458006424 12.3110123058423948   T   T   T
  5.8692492797514699  6.7758498580533244 12.2984656096240226   T   T   T
  8.7947391936173922  6.7331679198259176 12.3736186343841670   T   T   T
 11.7275032741524239  6.7728408667049047 12.3099534826613599   T   T   T
  4.3989950807076896  9.3106914367504068 12.3040490270338267   T   T   T
  7.3402863614746279  9.3071735858892772 12.3021038029710166   T   T   T
 10.2649776606633143  9.3091579615523052 12.3025172795628368   T   T   T
 13.1927341632919344  9.3107136512077737 12.3099840752476855   T   T   T
  0.0043958792880766 -0.0039386575671573 14.7502112818391744   T   T   T
  2.9317784831995288  0.0002655426425406 14.7527641677792190   T   T   T
  5.8572390305535098 -0.0066507055917003 14.7587175824672592   T   T   T
  8.7954257272072844 -0.0104810412343026 14.7450200414569998   T   T   T
  1.4717310104790025  2.5375415284514324 14.7501979717135452   T   T   T
  4.3724962282506734  2.5429238226837416 14.7546224331378717   T   T   T
  7.2949182663171221  2.5040556766234552 14.9472240052273904   T   T   T
 10.3145449694168843  2.5091842052630651 14.6891602617391719   T   T   T
  2.9134012104301092  5.0837048878282118 14.7602055109072836   T   T   T
  5.7998676469187735  5.1157279022190396 14.6836983689383711   T   T   T
  8.8092454909560374  5.1269354078594809 14.9468894510900796   T   T   T
 11.7371294152207302  5.0846239431921880 14.7449566046353855   T   T   T
  4.3843546944425968  7.6315090682218516 14.7602167477451829   T   T   T
  7.3142726800655549  7.6383085722445818 14.7545871049253066   T   T   T
 10.2647347374796851  7.6273301002940519 14.7586522276009244   T   T   T
 13.1899019205067543  7.6204862992286229 14.7611969979868647   T   T   T
  8.0708604892563365  3.8049420992573846 16.6227292600558805   T   T   T
  8.7842386527228378  3.3932430725060452 17.2285385561529729   T   T   T
  7.3649024381378236  4.2127381060204794 17.2409072877018836   T   T   T
