Au  N  H 
 1.0000000000000000
    11.7602134546722201    0.0000000000000000    0.0000000000000000
     5.8801067273361101   10.1846436056736955    0.0000000000000000
     0.0000000000000000    0.0000000000000000   22.2016305575400814
 Au  N   H  
  64   1   2
Selective dynamics
Cartesian
  0.0000000000000000  0.0000000000000000  7.5000000000000000   F   F   F
  2.9400533636680550  0.0000000000000000  7.5000000000000000   F   F   F
  5.8801067273361101  0.0000000000000000  7.5000000000000000   F   F   F
  8.8201600910041655  0.0000000000000000  7.5000000000000000   F   F   F
  1.4700266818340275  2.5461609014184239  7.5000000000000000   F   F   F
  4.4100800455020828  2.5461609014184239  7.5000000000000000   F   F   F
  7.3501334091701374  2.5461609014184239  7.5000000000000000   F   F   F
 10.2901867728381937  2.5461609014184239  7.5000000000000000   F   F   F
  2.9400533636680550  5.0923218028368478  7.5000000000000000   F   F   F
  5.8801067273361101  5.0923218028368478  7.5000000000000000   F   F   F
  8.8201600910041655  5.0923218028368478  7.5000000000000000   F   F   F
 11.7602134546722201  5.0923218028368478  7.5000000000000000   F   F   F
  4.4100800455020828  7.6384827042552716  7.5000000000000000   F   F   F
  7.3501334091701374  7.6384827042552716  7.5000000000000000   F   F   F
 10.2901867728381937  7.6384827042552716  7.5000000000000000   F   F   F
 13.2302401365062483  7.6384827042552716  7.5000000000000000   F   F   F
  1.4700266818340275  0.8487203004728079  9.9005435191800277   F   F   F
  4.4100800455020828  0.8487203004728079  9.9005435191800277   F   F   F
  7.3501334091701382  0.8487203004728079  9.9005435191800277   F   F   F
 10.2901867728381937  0.8487203004728079  9.9005435191800277   F   F   F
  2.9400533636680550  3.3948812018912315  9.9005435191800277   F   F   F
  5.8801067273361101  3.3948812018912315  9.9005435191800277   F   F   F
  8.8201600910041655  3.3948812018912315  9.9005435191800277   F   F   F
 11.7602134546722219  3.3948812018912315  9.9005435191800277   F   F   F
  4.4100800455020828  5.9410421033096563  9.9005435191800277   F   F   F
  7.3501334091701374  5.9410421033096563  9.9005435191800277   F   F   F
 10.2901867728381937  5.9410421033096563  9.9005435191800277   F   F   F
 13.2302401365062483  5.9410421033096563  9.9005435191800277   F   F   F
  5.8801067273361109  8.4872030047280802  9.9005435191800277   F   F   F
  8.8201600910041655  8.4872030047280802  9.9005435191800277   F   F   F
 11.7602134546722219  8.4872030047280802  9.9005435191800277   F   F   F
 14.7002668183402765  8.4872030047280802  9.9005435191800277   F   F   F
  0.0369182796636366  1.6761510994235687 12.2664372435278839   T   T   T
  2.9689523105726372  1.6744650537707393 12.3151887583561326   T   T   T
  5.9305469033504208  1.7237886455629954 12.4176008192169878   T   T   T
  8.8147103552872412  1.7113584931135606 12.3424438759924389   T   T   T
  1.4728791629982825  4.2337841588476328 12.3117762073033674   T   T   T
  4.3980961732017763  4.2232503188698090 12.2876598867500242   T   T   T
  7.3608785130489354  4.2374348655163132 12.3814484025863791   T   T   T
 10.2754701530649903  4.2414382490653946 12.3424124742863821   T   T   T
  2.9385013581446295  6.7907025903230416 12.3202296032855525   T   T   T
  5.8917735234353952  6.8103836024019433 12.2876491731289423   T   T   T
  8.8226355774227159  6.7330655061069917 12.4174763145362750   T   T   T
 11.7625841965476869  6.7891390537485963 12.3162056682980889   T   T   T
  4.4200286605297547  9.3384235138991656 12.3118045184450136   T   T   T
  7.3845283303846747  9.3224944773599923 12.3151713731001387   T   T   T
 10.2985184854097334  9.3312315238196053 12.3034532704896638   T   T   T
 13.2320291901749183  9.3343106355296808 12.3162308154005231   T   T   T
  0.0171128502008733 -0.0165013420230767 14.8107449365387787   T   T   T
  2.9402059857062541  0.0000103494893186 14.8225129016738126   T   T   T
  5.8582088618100894 -0.0289611870090050 14.7965750590690845   T   T   T
  8.8224484234149685 -0.0002184504060180 14.7699820883682964   T   T   T
  1.4929633985850943  2.5397119663144041 14.8107120480092984   T   T   T
  4.3400404573265501  2.5629586507159332 14.8111930374979224   T   T   T
  7.2218225739844852  2.4631191090512781 14.9754197860800193   T   T   T
 10.4098043646903786  2.4771656400312270 14.6616760221681073   T   T   T
  2.8824294142286115  5.1103318399970075 14.8074834869583878   T   T   T
  5.7398510617918257  5.1733697097440370 14.6563476562266288   T   T   T
  8.8279503453155712  5.2451750382326647 14.9747182419806819   T   T   T
 11.7616434475114424  5.0906041136846074 14.7698808665442201   T   T   T
  4.3657215131179958  7.6795026857975301 14.8074826625223306   T   T   T
  7.3006012584719402  7.6909321177510446 14.8111089392174566   T   T   T
 10.3044986408693813  7.6722201604141498 14.7964676928591956   T   T   T
 13.2185556407872173  7.6453430767426038 14.8021141501696736   T   T   T
  8.0925040229847287  3.8155072846424760 16.4877529585092191   T   T   T
  8.8302306349872630  3.3897895342793540 17.0543253191728255   T   T   T
  7.3990309621564618  4.2160594897221522 17.1239501659621922   T   T   T
