Ir  N  H 
 1.0000000000000000
    10.9538490905188866    0.0000000000000000    0.0000000000000000
     5.4769245452594433    9.4863115816104226    0.0000000000000000
     0.0000000000000000    0.0000000000000000   21.7078352478052139
 Ir  N   H  
  64   1   2
Selective dynamics
Cartesian
  0.0000000000000000  0.0000000000000000  7.4999999999999991   F   F   F
  2.7384622726297216  0.0000000000000000  7.4999999999999991   F   F   F
  5.4769245452594433  0.0000000000000000  7.4999999999999991   F   F   F
  8.2153868178891649  0.0000000000000000  7.4999999999999991   F   F   F
  1.3692311363148608  2.3715778954026057  7.4999999999999991   F   F   F
  4.1076934089445825  2.3715778954026057  7.4999999999999991   F   F   F
  6.8461556815743041  2.3715778954026057  7.4999999999999991   F   F   F
  9.5846179542040257  2.3715778954026057  7.4999999999999991   F   F   F
  2.7384622726297216  4.7431557908052113  7.4999999999999991   F   F   F
  5.4769245452594433  4.7431557908052113  7.4999999999999991   F   F   F
  8.2153868178891649  4.7431557908052113  7.4999999999999991   F   F   F
 10.9538490905188866  4.7431557908052113  7.4999999999999991   F   F   F
  4.1076934089445825  7.1147336862078170  7.4999999999999991   F   F   F
  6.8461556815743041  7.1147336862078170  7.4999999999999991   F   F   F
  9.5846179542040257  7.1147336862078170  7.4999999999999991   F   F   F
 12.3230802268337474  7.1147336862078170  7.4999999999999991   F   F   F
  1.3692311363148608  0.7905259651342018  9.7359450826017380   F   F   F
  4.1076934089445825  0.7905259651342018  9.7359450826017380   F   F   F
  6.8461556815743041  0.7905259651342018  9.7359450826017380   F   F   F
  9.5846179542040257  0.7905259651342018  9.7359450826017380   F   F   F
  2.7384622726297216  3.1621038605368073  9.7359450826017380   F   F   F
  5.4769245452594433  3.1621038605368073  9.7359450826017380   F   F   F
  8.2153868178891649  3.1621038605368073  9.7359450826017380   F   F   F
 10.9538490905188866  3.1621038605368073  9.7359450826017380   F   F   F
  4.1076934089445825  5.5336817559394138  9.7359450826017380   F   F   F
  6.8461556815743041  5.5336817559394138  9.7359450826017380   F   F   F
  9.5846179542040257  5.5336817559394138  9.7359450826017380   F   F   F
 12.3230802268337474  5.5336817559394138  9.7359450826017380   F   F   F
  5.4769245452594433  7.9052596513420195  9.7359450826017380   F   F   F
  8.2153868178891649  7.9052596513420195  9.7359450826017380   F   F   F
 10.9538490905188866  7.9052596513420195  9.7359450826017380   F   F   F
 13.6923113631486082  7.9052596513420195  9.7359450826017380   F   F   F
  0.0038566818104557  1.5788466805937387 11.9279142541635679   T   T   T
  2.7499986462584523  1.5765703358981329 11.9408006288383604   T   T   T
  5.5011166638502127  1.5945282600186823 11.9822956529575073   T   T   T
  8.2093530859379111  1.5885428050904988 11.9569218071800627   T   T   T
  1.3667738149878770  3.9507938545132784 11.9454199497022415   T   T   T
  4.1072147751354988  3.9503627400442709 11.9380459082488706   T   T   T
  6.8470460876897423  3.9521508623345993 11.9559970605999926   T   T   T
  9.5751420864558145  3.9541465599791707 11.9569035405353006   T   T   T
  2.7368200099345525  6.3251907340001994 11.9428036096349093   T   T   T
  5.4786614742969384  6.3257894844660525 11.9380583997957643   T   T   T
  8.2158371839481426  6.2966064878609753 11.9822511159633009   T   T   T
 10.9519768408463900  6.3216121658001434 11.9489473982338783   T   T   T
  4.1080691582073579  8.6988743727712468 11.9454219820114620   T   T   T
  6.8558223917550567  8.6880924565916953 11.9407958425313900   T   T   T
  9.5901031056654453  8.6926653599468793 11.9515269376837932   T   T   T
 12.3244225517466290  8.6987629548879646 11.9489507096441532   T   T   T
  0.0121822675346355 -0.0074584886607830 14.1503116133794258   T   T   T
  2.7413397100364163 -0.0016122651103202 14.1547288276648953   T   T   T
  5.4841496305015678  0.0030913331620514 14.1592898661153956   T   T   T
  8.2198504109961608 -0.0108889040864491 14.1574234449001306   T   T   T
  1.3818232047027850  2.3648252905365510 14.1503099478230894   T   T   T
  4.0939094798439077  2.3724270992939673 14.1541862084129750   T   T   T
  6.8425620126099416  2.3909541435385036 14.2649982127753709   T   T   T
  9.6517518509672904  2.3328570995113620 14.1183678554950536   T   T   T
  2.7225144045130114  4.7415996698858338 14.1525547334058697   T   T   T
  5.4052332990269729  4.7845884127985912 14.1241708405544006   T   T   T
  8.1969540347327570  4.7367925649376614 14.2647794303805995   T   T   T
 10.9655833852324598  4.7448112365136543 14.1574099818152028   T   T   T
  4.1011045282446386  7.1293988628633302 14.1525561575175622   T   T   T
  6.8385704449246223  7.1263404877298093 14.1541708949482921   T   T   T
  9.5856129282003515  7.1070586950885541 14.1592666556379019   T   T   T
 12.3192704993609006  7.1169874248724465 14.1580289882712247   T   T   T
  7.5444531489540347  3.5499644651539959 15.8950260438776318   T   T   T
  8.2674838763360157  3.1328059641179427 16.4848346014075773   T   T   T
  6.8180005783167958  3.9696676623340639 16.4794505027700104   T   T   T
