Pt  N  H 
 1.0000000000000000
    11.2211673782643580    0.0000000000000000    0.0000000000000000
     5.6105836891321790    9.7178160096941610    0.0000000000000000
     0.0000000000000000    0.0000000000000000   21.8715335987779369
 Pt  N   H  
  64   1   2
Selective dynamics
Cartesian
  0.0000000000000000  0.0000000000000000  7.4999999999999991   F   F   F
  2.8052918445660895  0.0000000000000000  7.4999999999999991   F   F   F
  5.6105836891321790  0.0000000000000000  7.4999999999999991   F   F   F
  8.4158755336982694  0.0000000000000000  7.4999999999999991   F   F   F
  1.4026459222830447  2.4294540024235403  7.4999999999999991   F   F   F
  4.2079377668491347  2.4294540024235403  7.4999999999999991   F   F   F
  7.0132296114152233  2.4294540024235403  7.4999999999999991   F   F   F
  9.8185214559813137  2.4294540024235403  7.4999999999999991   F   F   F
  2.8052918445660895  4.8589080048470805  7.4999999999999991   F   F   F
  5.6105836891321790  4.8589080048470805  7.4999999999999991   F   F   F
  8.4158755336982694  4.8589080048470805  7.4999999999999991   F   F   F
 11.2211673782643580  4.8589080048470805  7.4999999999999991   F   F   F
  4.2079377668491347  7.2883620072706208  7.4999999999999991   F   F   F
  7.0132296114152242  7.2883620072706208  7.4999999999999991   F   F   F
  9.8185214559813137  7.2883620072706208  7.4999999999999991   F   F   F
 12.6238133005474040  7.2883620072706208  7.4999999999999991   F   F   F
  1.4026459222830447  0.8098180008078467  9.7905111995926450   F   F   F
  4.2079377668491338  0.8098180008078467  9.7905111995926450   F   F   F
  7.0132296114152242  0.8098180008078467  9.7905111995926450   F   F   F
  9.8185214559813137  0.8098180008078467  9.7905111995926450   F   F   F
  2.8052918445660895  3.2392720032313869  9.7905111995926450   F   F   F
  5.6105836891321790  3.2392720032313869  9.7905111995926450   F   F   F
  8.4158755336982694  3.2392720032313869  9.7905111995926450   F   F   F
 11.2211673782643580  3.2392720032313869  9.7905111995926450   F   F   F
  4.2079377668491347  5.6687260056549276  9.7905111995926450   F   F   F
  7.0132296114152233  5.6687260056549276  9.7905111995926450   F   F   F
  9.8185214559813137  5.6687260056549276  9.7905111995926450   F   F   F
 12.6238133005474040  5.6687260056549276  9.7905111995926450   F   F   F
  5.6105836891321790  8.0981800080784687  9.7905111995926450   F   F   F
  8.4158755336982694  8.0981800080784687  9.7905111995926450   F   F   F
 11.2211673782643580  8.0981800080784687  9.7905111995926450   F   F   F
 14.0264592228304483  8.0981800080784687  9.7905111995926450   F   F   F
  0.0132072515613675  1.6120608613836067 12.0457188603613190   T   T   T
  2.8234271692601385  1.6093534600158181 12.0764241857024750   T   T   T
  5.6561670599954894  1.6498230287886753 12.1775055671403916   T   T   T
  8.4086532962638447  1.6221781868792677 12.0976514514883959   T   T   T
  1.3974144517907587  4.0440553831367003 12.0782292536097842   T   T   T
  4.1939401674432020  4.0437764787153077 12.0683908358459444   T   T   T
  7.0130907586727114  4.0492212233603873 12.1010387764259804   T   T   T
  9.8127509724881623  4.0541372521238443 12.0976225721803914   T   T   T
  2.7980462084614763  6.4827912467033100 12.0822544833558858   T   T   T
  5.6082232486567225  6.4934018048841171 12.0683826614678846   T   T   T
  8.4125840470243016  6.4240886621325943 12.1774472788150749   T   T   T
 11.2153734506532849  6.4842198643592122 12.0844178904670017   T   T   T
  4.2097084891403593  8.9151331645319924 12.0782474419620645   T   T   T
  7.0312533670095370  8.8975410945362476 12.0764048090584044   T   T   T
  9.8228879986799900  8.9055624335652421 12.0889976043875791   T   T   T
 12.6160576004911604  8.9102857908050979 12.0844447549413267   T   T   T
 -0.0017692452875349 -0.0012786184027203 14.4104423707320439   T   T   T
  2.7952045687921503  0.0059540831896557 14.4293328320316459   T   T   T
  5.5893683449424039 -0.0002310719668322 14.4382774139061372   T   T   T
  8.4052299688398122 -0.0007836563082343 14.4048955501307923   T   T   T
  1.4029638590978808  2.4317824078226766 14.4104367343084032   T   T   T
  4.1477151055037522  2.4369595548731633 14.4322589115064606   T   T   T
  6.9393250396516226  2.4474629819415674 14.5523620636288822   T   T   T
  9.8898351967276437  2.3883447848359332 14.3285036747426915   T   T   T
  2.7673798046396976  4.8764119416791241 14.4160939975655360   T   T   T
  5.5078856828501346  4.9183037767090063 14.3514881518241335   T   T   T
  8.3634327670019957  4.9141954040103464 14.5522380964523812   T   T   T
 11.2166430489425615  4.8686860165355217 14.4048473463187481   T   T   T
  4.1739108539592786  7.3126102217557234 14.4160982979792998   T   T   T
  6.9766994463307865  7.3369702612248657 14.4322240878773336   T   T   T
  9.8082420349000010  7.3070818976665235 14.4382315623608264   T   T   T
 12.5995393875671855  7.3025004476451469 14.4224655645317767   T   T   T
  7.7376523936361892  3.6311740770746606 16.0720719379243846   T   T   T
  8.4807469712061572  3.2022713263477556 16.6274562550258054   T   T   T
  7.0284721217944748  4.0406885932982526 16.6848414221405363   T   T   T
