Pd  N  H 
 1.0000000000000000
    11.1449118996936107    0.0000000000000000    0.0000000000000000
     5.5724559498468054    9.6517768280741532    0.0000000000000000
     0.0000000000000000    0.0000000000000000   21.8248368456304220
 Pd  N   H  
  64   1   2
Selective dynamics
Cartesian
  0.0000000000000000  0.0000000000000000  7.5000000000000000   F   F   F
  2.7862279749234027  0.0000000000000000  7.5000000000000000   F   F   F
  5.5724559498468054  0.0000000000000000  7.5000000000000000   F   F   F
  8.3586839247702081  0.0000000000000000  7.5000000000000000   F   F   F
  1.3931139874617013  2.4129442070185383  7.5000000000000000   F   F   F
  4.1793419623851040  2.4129442070185383  7.5000000000000000   F   F   F
  6.9655699373085067  2.4129442070185383  7.5000000000000000   F   F   F
  9.7517979122319094  2.4129442070185383  7.5000000000000000   F   F   F
  2.7862279749234027  4.8258884140370766  7.5000000000000000   F   F   F
  5.5724559498468054  4.8258884140370766  7.5000000000000000   F   F   F
  8.3586839247702081  4.8258884140370766  7.5000000000000000   F   F   F
 11.1449118996936107  4.8258884140370766  7.5000000000000000   F   F   F
  4.1793419623851040  7.2388326210556144  7.5000000000000000   F   F   F
  6.9655699373085067  7.2388326210556144  7.5000000000000000   F   F   F
  9.7517979122319094  7.2388326210556144  7.5000000000000000   F   F   F
 12.5380258871553121  7.2388326210556144  7.5000000000000000   F   F   F
  1.3931139874617013  0.8043147356728461  9.7749456152101395   F   F   F
  4.1793419623851040  0.8043147356728461  9.7749456152101395   F   F   F
  6.9655699373085067  0.8043147356728461  9.7749456152101395   F   F   F
  9.7517979122319094  0.8043147356728461  9.7749456152101395   F   F   F
  2.7862279749234027  3.2172589426913842  9.7749456152101395   F   F   F
  5.5724559498468054  3.2172589426913842  9.7749456152101395   F   F   F
  8.3586839247702081  3.2172589426913842  9.7749456152101395   F   F   F
 11.1449118996936107  3.2172589426913842  9.7749456152101395   F   F   F
  4.1793419623851040  5.6302031497099234  9.7749456152101395   F   F   F
  6.9655699373085067  5.6302031497099234  9.7749456152101395   F   F   F
  9.7517979122319094  5.6302031497099234  9.7749456152101395   F   F   F
 12.5380258871553121  5.6302031497099234  9.7749456152101395   F   F   F
  5.5724559498468054  8.0431473567284613  9.7749456152101395   F   F   F
  8.3586839247702081  8.0431473567284613  9.7749456152101395   F   F   F
 11.1449118996936107  8.0431473567284613  9.7749456152101395   F   F   F
 13.9311398746170134  8.0431473567284613  9.7749456152101395   F   F   F
  0.0085644624300909  1.6037284577248867 12.0470438301415506   T   T   T
  2.7983253867376843  1.6007429885588991 12.0708755705350814   T   T   T
  5.5996331416844489  1.6186402868863823 12.1456180977177048   T   T   T
  8.3558412262382706  1.6064641043480812 12.0840299742719139   T   T   T
  1.3901165518272787  4.0213435862950062 12.0693499420995813   T   T   T
  4.1719538505043730  4.0139156233765831 12.0597022086499770   T   T   T
  6.9715881276677028  4.0181231310260044 12.0796471594130210   T   T   T
  9.7523113687990968  4.0251503204003551 12.0839790896611721   T   T   T
  2.7863805510511268  6.4344336561989675 12.0658637607652874   T   T   T
  5.5754162048837843  6.4447783186535599 12.0596742988101280   T   T   T
  8.3636715789515996  6.4060818214216804 12.1455080338917671   T   T   T
 11.1459516237434855  6.4345238796273252 12.0783211286152579   T   T   T
  4.1780463647053896  8.8502186410111676 12.0693523771476308   T   T   T
  6.9785056090630997  8.8410364007090543 12.0708434823367678   T   T   T
  9.7651310881654432  8.8398536551973592 12.0888611850319450   T   T   T
 12.5385526689499951  8.8466192488966762 12.0783526246788977   T   T   T
 -0.0015766233158262  0.0018004125592578 14.3819515792814006   T   T   T
  2.7864783948142771 -0.0000343699862986 14.4020915929677429   T   T   T
  5.5632056831946297  0.0043367128992226 14.4242724824457582   T   T   T
  8.3534284976547220 -0.0047548122848372 14.4029532586076492   T   T   T
  1.3908372520203509  2.4135110368709172 14.3819224346610071   T   T   T
  4.1387232704205017  2.4152735921577868 14.4134965412154692   T   T   T
  6.9222206647545397  2.4230138408453867 14.5077847506624220   T   T   T
  9.8034502714285647  2.3831867047509436 14.3303230620056485   T   T   T
  2.7638663577459512  4.8360453069597824 14.3888707639404032   T   T   T
  5.5006128225465893  4.8674358754265725 14.3344132283926502   T   T   T
  8.3284541825711393  4.8587493792754737 14.5074478815962831   T   T   T
 11.1465071111191527  4.8329417294090184 14.4028851468918475   T   T   T
  4.1594170460880902  7.2532169897732421 14.3888862508473281   T   T   T
  6.9433147921543794  7.2730081649370613 14.4134639023423627   T   T   T
  9.7435396752148993  7.2449021335764723 14.4242031153398589   T   T   T
 12.5231589577856877  7.2475068104857510 14.3964266390275650   T   T   T
  7.6905455376066092  3.6035614657989345 16.0220033296179238   T   T   T
  8.4145510609383827  3.1858250523275795 16.6125132745170703   T   T   T
  6.9722504876529001  4.0184641216523040 16.6215723083179014   T   T   T
