Pd  N  O  H 
 1.0000000000000000
     8.3586839247702081    0.0000000000000000    0.0000000000000000
     0.0000000000000000    8.3586839247702081    0.0000000000000000
     0.0000000000000000    0.0000000000000000   24.8508034749999993
 Pd  N   O   H  
  54   1   1   3
Selective dynamics
Cartesian
  1.3931139874617013  1.3931139874617013  7.5000000000000000   F   F   F
  4.1793419623851040  1.3931139874617013  7.5000000000000000   F   F   F
  6.9655699373085067  1.3931139874617013  7.5000000000000000   F   F   F
  1.3931139874617013  4.1793419623851040  7.5000000000000000   F   F   F
  4.1793419623851040  4.1793419623851040  7.5000000000000000   F   F   F
  6.9655699373085067  4.1793419623851040  7.5000000000000000   F   F   F
  1.3931139874617013  6.9655699373085067  7.5000000000000000   F   F   F
  4.1793419623851040  6.9655699373085067  7.5000000000000000   F   F   F
  6.9655699373085067  6.9655699373085067  7.5000000000000000   F   F   F
  0.0000000000000000  0.0000000000000000  9.4701606950000006   F   F   F
  2.7862279749234027  0.0000000000000000  9.4701606950000006   F   F   F
  5.5724559498468054  0.0000000000000000  9.4701606950000006   F   F   F
  0.0000000000000000  2.7862279749234027  9.4701606950000006   F   F   F
  2.7862279749234027  2.7862279749234027  9.4701606950000006   F   F   F
  5.5724559498468054  2.7862279749234027  9.4701606950000006   F   F   F
  0.0000000000000000  5.5724559498468054  9.4701606950000006   F   F   F
  2.7862279749234027  5.5724559498468054  9.4701606950000006   F   F   F
  5.5724559498468054  5.5724559498468054  9.4701606950000006   F   F   F
  1.3931139874617013  1.3931139874617013 11.4403213899999994   F   F   F
  4.1793419623851040  1.3931139874617013 11.4403213899999994   F   F   F
  6.9655699373085067  1.3931139874617013 11.4403213899999994   F   F   F
  1.3931139874617013  4.1793419623851040 11.4403213899999994   F   F   F
  4.1793419623851040  4.1793419623851040 11.4403213899999994   F   F   F
  6.9655699373085067  4.1793419623851040 11.4403213899999994   F   F   F
  1.3931139874617013  6.9655699373085067 11.4403213899999994   F   F   F
  4.1793419623851040  6.9655699373085067 11.4403213899999994   F   F   F
  6.9655699373085067  6.9655699373085067 11.4403213899999994   F   F   F
  0.0000000000000000  0.0000000000000000 13.4104820849999999   F   F   F
  2.7862279749234027  0.0000000000000000 13.4104820849999999   F   F   F
  5.5724559498468054  0.0000000000000000 13.4104820849999999   F   F   F
  0.0000000000000000  2.7862279749234027 13.4104820849999999   F   F   F
  2.7862279749234027  2.7862279749234027 13.4104820849999999   F   F   F
  5.5724559498468054  2.7862279749234027 13.4104820849999999   F   F   F
  0.0000000000000000  5.5724559498468054 13.4104820849999999   F   F   F
  2.7862279749234027  5.5724559498468054 13.4104820849999999   F   F   F
  5.5724559498468054  5.5724559498468054 13.4104820849999999   F   F   F
  1.4003883752817774  1.4073468047186162 15.4439422745206496   T   T   T
  4.1651999985131392  1.4073384643013402 15.4406552415540599   T   T   T
  6.9614315606084514  1.3886693791938076 15.4151430269932064   T   T   T
  1.4043984535308378  4.1683567062530313 15.4466284519688362   T   T   T
  4.1651055564993227  4.1723883746809642 15.4435162356518934   T   T   T
  6.9657527405394077  4.1899954494479861 15.4125130730841153   T   T   T
  1.3828287396390444  6.9656219734651819 15.4131340518944064   T   T   T
  4.1838519783306625  6.9698452621930862 15.4152505771305108   T   T   T
  6.9638252750882730  6.9674825332926398 15.4196351423601552   T   T   T
 -0.0134619901896428 -0.0024355350793504 17.4192092795544511   T   T   T
  2.7804067052943777 -0.0143131864924958 17.3947212837766827   T   T   T
  5.5665280502149956  0.0068573536553278 17.4257152085162659   T   T   T
 -0.0258582311859302  2.7900576034149536 17.4035402548903626   T   T   T
  2.7662104632690712  2.8056451285355961 17.5686168879782940   T   T   T
  5.5872298932450226  2.7923178392516843 17.3938886039124050   T   T   T
 -0.0064595189637930  5.5789618853408705 17.4214409665193095   T   T   T
  2.7823333243113195  5.5984491515966370 17.4027419861666566   T   T   T
  5.5750655283657577  5.5864107544209771 17.4184680203550677   T   T   T
  2.8633143344301044  2.7088612761414330 19.7161469771677460   T   T   T
  3.8351958327604616  1.8076299624992289 20.3170140088377877   T   T   T
  3.0850153887726157  3.6339540712731697 20.0993751616469041   T   T   T
  1.9566611653455488  2.4178741233843244 20.0973983364011168   T   T   T
  4.2623938164830957  1.3956082335641020 19.5267531253775033   T   T   T
