Rh  N  O  H 
 1.0000000000000000
     8.1252569843256168    0.0000000000000000    0.0000000000000000
     0.0000000000000000    8.1252569843256168    0.0000000000000000
     0.0000000000000000    0.0000000000000000   24.5757071875000008
 Rh  N   O   H  
  54   1   1   3
Selective dynamics
Cartesian
  1.3542094973876027  1.3542094973876027  7.5000000000000000   F   F   F
  4.0626284921628084  1.3542094973876027  7.5000000000000000   F   F   F
  6.7710474869380128  1.3542094973876027  7.5000000000000000   F   F   F
  1.3542094973876027  4.0626284921628084  7.5000000000000000   F   F   F
  4.0626284921628084  4.0626284921628084  7.5000000000000000   F   F   F
  6.7710474869380128  4.0626284921628084  7.5000000000000000   F   F   F
  1.3542094973876027  6.7710474869380128  7.5000000000000000   F   F   F
  4.0626284921628084  6.7710474869380128  7.5000000000000000   F   F   F
  6.7710474869380128  6.7710474869380128  7.5000000000000000   F   F   F
  0.0000000000000000  0.0000000000000000  9.4151414375000009   F   F   F
  2.7084189947752053  0.0000000000000000  9.4151414375000009   F   F   F
  5.4168379895504106  0.0000000000000000  9.4151414375000009   F   F   F
  0.0000000000000000  2.7084189947752053  9.4151414375000009   F   F   F
  2.7084189947752053  2.7084189947752053  9.4151414375000009   F   F   F
  5.4168379895504106  2.7084189947752053  9.4151414375000009   F   F   F
  0.0000000000000000  5.4168379895504106  9.4151414375000009   F   F   F
  2.7084189947752053  5.4168379895504106  9.4151414375000009   F   F   F
  5.4168379895504106  5.4168379895504106  9.4151414375000009   F   F   F
  1.3542094973876027  1.3542094973876027 11.3302828750000000   F   F   F
  4.0626284921628084  1.3542094973876027 11.3302828750000000   F   F   F
  6.7710474869380128  1.3542094973876027 11.3302828750000000   F   F   F
  1.3542094973876027  4.0626284921628084 11.3302828750000000   F   F   F
  4.0626284921628084  4.0626284921628084 11.3302828750000000   F   F   F
  6.7710474869380128  4.0626284921628084 11.3302828750000000   F   F   F
  1.3542094973876027  6.7710474869380128 11.3302828750000000   F   F   F
  4.0626284921628084  6.7710474869380128 11.3302828750000000   F   F   F
  6.7710474869380128  6.7710474869380128 11.3302828750000000   F   F   F
  0.0000000000000000  0.0000000000000000 13.2454243124999991   F   F   F
  2.7084189947752053  0.0000000000000000 13.2454243124999991   F   F   F
  5.4168379895504106  0.0000000000000000 13.2454243124999991   F   F   F
  0.0000000000000000  2.7084189947752053 13.2454243124999991   F   F   F
  2.7084189947752053  2.7084189947752053 13.2454243124999991   F   F   F
  5.4168379895504106  2.7084189947752053 13.2454243124999991   F   F   F
  0.0000000000000000  5.4168379895504106 13.2454243124999991   F   F   F
  2.7084189947752053  5.4168379895504106 13.2454243124999991   F   F   F
  5.4168379895504106  5.4168379895504106 13.2454243124999991   F   F   F
  1.3627993281222794  1.3635483831049620 15.2003374991948181   T   T   T
  4.0582184778716535  1.3589845954201318 15.1942723450148147   T   T   T
  6.7701894985606126  1.3538315505202281 15.1827937033549336   T   T   T
  1.3601825669201886  4.0563353669905391 15.1975828324412667   T   T   T
  4.0534115181231982  4.0535702879444164 15.2005829935477390   T   T   T
  6.7696192976451277  4.0661972593932827 15.1805485306192267   T   T   T
  1.3508684286848800  6.7730563193740378 15.1813238675848226   T   T   T
  4.0635036607330592  6.7719057047882503 15.1829051280894323   T   T   T
  6.7719086692013519  6.7700463081478777 15.1779855983435432   T   T   T
 -0.0042773467662220 -0.0008054036332133 17.0393940274517064   T   T   T
  2.7093218824576559 -0.0134128399728391 17.0331071262971925   T   T   T
  5.4160184367425668  0.0017754048105612 17.0387807557989746   T   T   T
 -0.0113183681727941  2.7104068900220017 17.0304103629832966   T   T   T
  2.7038478722943764  2.7137119886860610 17.1755829281459924   T   T   T
  5.4303658654663636  2.7071530387176770 17.0328793124066635   T   T   T
 -0.0041733438186671  5.4206437635101707 17.0398423556105598   T   T   T
  2.7064777140589134  5.4284251349222403 17.0300009347533496   T   T   T
  5.4179701932407038  5.4208749948192771 17.0391546931170339   T   T   T
  2.7171388245388783  2.6927298596782623 19.3317312239238213   T   T   T
  3.6695613221317704  1.8314155353922423 20.0214887624781426   T   T   T
  2.9096792068319992  3.6363609491667623 19.6869830673726938   T   T   T
  1.7961809556346582  2.4046339767093210 19.6826158432108471   T   T   T
  4.1364054257999889  1.3899982504338508 19.2689367058935730   T   T   T
