Ni  N  O  H 
 1.0000000000000000
     7.4637869660136236    0.0000000000000000    0.0000000000000000
     0.0000000000000000    7.4637869660136236    0.0000000000000000
     0.0000000000000000    0.0000000000000000   23.7961572950000004
 Ni  N   O   H  
  54   1   1   3
Selective dynamics
Cartesian
  1.2439644943356039  1.2439644943356039  7.5000000000000009   F   F   F
  3.7318934830068118  1.2439644943356039  7.5000000000000009   F   F   F
  6.2198224716780190  1.2439644943356039  7.5000000000000009   F   F   F
  1.2439644943356039  3.7318934830068118  7.5000000000000009   F   F   F
  3.7318934830068118  3.7318934830068118  7.5000000000000009   F   F   F
  6.2198224716780190  3.7318934830068118  7.5000000000000009   F   F   F
  1.2439644943356039  6.2198224716780190  7.5000000000000009   F   F   F
  3.7318934830068118  6.2198224716780190  7.5000000000000009   F   F   F
  6.2198224716780190  6.2198224716780190  7.5000000000000009   F   F   F
  0.0000000000000000  0.0000000000000000  9.2592314590000004   F   F   F
  2.4879289886712077  0.0000000000000000  9.2592314590000004   F   F   F
  4.9758579773424154  0.0000000000000000  9.2592314590000004   F   F   F
  0.0000000000000000  2.4879289886712077  9.2592314590000004   F   F   F
  2.4879289886712077  2.4879289886712077  9.2592314590000004   F   F   F
  4.9758579773424154  2.4879289886712077  9.2592314590000004   F   F   F
  0.0000000000000000  4.9758579773424154  9.2592314590000004   F   F   F
  2.4879289886712077  4.9758579773424154  9.2592314590000004   F   F   F
  4.9758579773424154  4.9758579773424154  9.2592314590000004   F   F   F
  1.2439644943356039  1.2439644943356039 11.0184629180000009   F   F   F
  3.7318934830068118  1.2439644943356039 11.0184629180000009   F   F   F
  6.2198224716780190  1.2439644943356039 11.0184629180000009   F   F   F
  1.2439644943356039  3.7318934830068118 11.0184629180000009   F   F   F
  3.7318934830068118  3.7318934830068118 11.0184629180000009   F   F   F
  6.2198224716780190  3.7318934830068118 11.0184629180000009   F   F   F
  1.2439644943356039  6.2198224716780190 11.0184629180000009   F   F   F
  3.7318934830068118  6.2198224716780190 11.0184629180000009   F   F   F
  6.2198224716780190  6.2198224716780190 11.0184629180000009   F   F   F
  0.0000000000000000  0.0000000000000000 12.7776943769999995   F   F   F
  2.4879289886712077  0.0000000000000000 12.7776943769999995   F   F   F
  4.9758579773424154  0.0000000000000000 12.7776943769999995   F   F   F
  0.0000000000000000  2.4879289886712077 12.7776943769999995   F   F   F
  2.4879289886712077  2.4879289886712077 12.7776943769999995   F   F   F
  4.9758579773424154  2.4879289886712077 12.7776943769999995   F   F   F
  0.0000000000000000  4.9758579773424154 12.7776943769999995   F   F   F
  2.4879289886712077  4.9758579773424154 12.7776943769999995   F   F   F
  4.9758579773424154  4.9758579773424154 12.7776943769999995   F   F   F
  1.2582504032785982  1.2599196370627115 14.6032945186082195   T   T   T
  3.7158411112449734  1.2608344671402314 14.6022739523973435   T   T   T
  6.2189908914534771  1.2404356130804612 14.5743084875754754   T   T   T
  1.2574155490738606  3.7188291329970125 14.6008379167105709   T   T   T
  3.7162098244638919  3.7179874446195709 14.6028669073431239   T   T   T
  6.2177173625080560  3.7374675208833641 14.5740929786880180   T   T   T
  1.2391998955419410  6.2229772992522481 14.5746536159574873   T   T   T
  3.7360226062231434  6.2216574311597697 14.5747346182538031   T   T   T
  6.2214386404829254  6.2190432358785337 14.5746081810774548   T   T   T
 -0.0033904246191208 -0.0002975968566864 16.3063416514335486   T   T   T
  2.4909636516042344 -0.0179517505982762 16.2982080168727244   T   T   T
  4.9754101882868191  0.0028859057637676 16.3054429997534207   T   T   T
 -0.0235954892385861  2.4903980616837207 16.2927215218665076   T   T   T
  2.4762776741958787  2.4979889735706124 16.5192916995445707   T   T   T
  4.9943822211143045  2.4866739919691740 16.2977206052999541   T   T   T
 -0.0006230741708887  4.9770622614540816 16.3069721590268024   T   T   T
  2.4868473060245746  4.9998258154111657 16.2922471253341392   T   T   T
  4.9768767789880446  4.9800988536314428 16.3065625319494849   T   T   T
  2.4764860302797378  2.4893542972417331 18.5346686559370006   T   T   T
  3.4391203812798605  1.6173289255356011 19.2047771299694467   T   T   T
  2.6735660546629667  3.4260246610824323 18.9061943764986928   T   T   T
  1.5629405434823243  2.1992260433466364 18.9039186546255813   T   T   T
  3.8958402428793732  1.1865758456386688 18.4369950609505011   T   T   T
