Au  N  O  H 
 1.0000000000000000
     8.8201600910041655    0.0000000000000000    0.0000000000000000
     0.0000000000000000    8.8201600910041655    0.0000000000000000
     0.0000000000000000    0.0000000000000000   25.3946583525000023
 Au  N   O   H  
  54   1   1   3
Selective dynamics
Cartesian
  1.4700266818340275  1.4700266818340275  7.5000000000000000   F   F   F
  4.4100800455020828  1.4700266818340275  7.5000000000000000   F   F   F
  7.3501334091701374  1.4700266818340275  7.5000000000000000   F   F   F
  1.4700266818340275  4.4100800455020828  7.5000000000000000   F   F   F
  4.4100800455020828  4.4100800455020828  7.5000000000000000   F   F   F
  7.3501334091701374  4.4100800455020828  7.5000000000000000   F   F   F
  1.4700266818340275  7.3501334091701374  7.5000000000000000   F   F   F
  4.4100800455020828  7.3501334091701374  7.5000000000000000   F   F   F
  7.3501334091701374  7.3501334091701374  7.5000000000000000   F   F   F
  0.0000000000000000  0.0000000000000000  9.5789316705000012   F   F   F
  2.9400533636680550  0.0000000000000000  9.5789316705000012   F   F   F
  5.8801067273361101  0.0000000000000000  9.5789316705000012   F   F   F
  0.0000000000000000  2.9400533636680550  9.5789316705000012   F   F   F
  2.9400533636680550  2.9400533636680550  9.5789316705000012   F   F   F
  5.8801067273361101  2.9400533636680550  9.5789316705000012   F   F   F
  0.0000000000000000  5.8801067273361101  9.5789316705000012   F   F   F
  2.9400533636680550  5.8801067273361101  9.5789316705000012   F   F   F
  5.8801067273361101  5.8801067273361101  9.5789316705000012   F   F   F
  1.4700266818340275  1.4700266818340275 11.6578633410000005   F   F   F
  4.4100800455020828  1.4700266818340275 11.6578633410000005   F   F   F
  7.3501334091701374  1.4700266818340275 11.6578633410000005   F   F   F
  1.4700266818340275  4.4100800455020828 11.6578633410000005   F   F   F
  4.4100800455020828  4.4100800455020828 11.6578633410000005   F   F   F
  7.3501334091701374  4.4100800455020828 11.6578633410000005   F   F   F
  1.4700266818340275  7.3501334091701374 11.6578633410000005   F   F   F
  4.4100800455020828  7.3501334091701374 11.6578633410000005   F   F   F
  7.3501334091701374  7.3501334091701374 11.6578633410000005   F   F   F
  0.0000000000000000  0.0000000000000000 13.7367950114999999   F   F   F
  2.9400533636680550  0.0000000000000000 13.7367950114999999   F   F   F
  5.8801067273361101  0.0000000000000000 13.7367950114999999   F   F   F
  0.0000000000000000  2.9400533636680550 13.7367950114999999   F   F   F
  2.9400533636680550  2.9400533636680550 13.7367950114999999   F   F   F
  5.8801067273361101  2.9400533636680550 13.7367950114999999   F   F   F
  0.0000000000000000  5.8801067273361101 13.7367950114999999   F   F   F
  2.9400533636680550  5.8801067273361101 13.7367950114999999   F   F   F
  5.8801067273361101  5.8801067273361101 13.7367950114999999   F   F   F
  1.4735651679908333  1.4931728418789076 15.8939532040654345   T   T   T
  4.3844197463205061  1.4947447465163399 15.8914066203089046   T   T   T
  7.3415001374665909  1.4678501420904468 15.8508107503873781   T   T   T
  1.4753769109384738  4.4036797886602148 15.8926649747825657   T   T   T
  4.3865107419164380  4.4058587502646818 15.8934858218973325   T   T   T
  7.3408492989950673  4.4201518226009497 15.8524166170467264   T   T   T
  1.4604781838437675  7.3587072932819702 15.8520560987446881   T   T   T
  4.4130979630333194  7.3587020542208785 15.8517888334872090   T   T   T
  7.3441391058989742  7.3568214609565752 15.8668195597687216   T   T   T
 -0.0145645284728025  0.0045386991395709 17.9768413523285737   T   T   T
  2.9337591659499562 -0.0110137071698391 17.9617964254666518   T   T   T
  5.8680033455990719  0.0139255768588398 17.9918194745529476   T   T   T
 -0.0522513583322958  2.9490677166065313 17.9706997147009453   T   T   T
  2.9010382081443802  2.9767119646305567 18.0716523776628257   T   T   T
  5.8886754673022779  2.9457399413524543 17.9619773324392433   T   T   T
 -0.0112632026308775  5.8918180190696461 17.9785269288045200   T   T   T
  2.9315165214520991  5.9299348983042286 17.9695695447497670   T   T   T
  5.8764325208807966  5.8955897896155811 17.9763134564588754   T   T   T
  2.9779820759514131  2.8977737327502489 20.5434110669564767   T   T   T
  3.9481387665570877  2.0215214431271686 21.1649533558385023   T   T   T
  3.1761192352749510  3.8319109200718953 20.9196469762301014   T   T   T
  2.0679584424862543  2.6008571880702838 20.9141919221904686   T   T   T
  4.4007223123245174  1.6179306106460898 20.3928279375043857   T   T   T
