Pt  N  O  H 
 1.0000000000000000
     8.4158755336982694    0.0000000000000000    0.0000000000000000
     0.0000000000000000    8.4158755336982694    0.0000000000000000
     0.0000000000000000    0.0000000000000000   24.9182044325000014
 Pt  N   O   H  
  54   1   1   3
Selective dynamics
Cartesian
  1.4026459222830447  1.4026459222830447  7.5000000000000000   F   F   F
  4.2079377668491347  1.4026459222830447  7.5000000000000000   F   F   F
  7.0132296114152233  1.4026459222830447  7.5000000000000000   F   F   F
  1.4026459222830447  4.2079377668491347  7.5000000000000000   F   F   F
  4.2079377668491347  4.2079377668491347  7.5000000000000000   F   F   F
  7.0132296114152233  4.2079377668491347  7.5000000000000000   F   F   F
  1.4026459222830447  7.0132296114152233  7.5000000000000000   F   F   F
  4.2079377668491347  7.0132296114152233  7.5000000000000000   F   F   F
  7.0132296114152233  7.0132296114152233  7.5000000000000000   F   F   F
  0.0000000000000000  0.0000000000000000  9.4836408864999999   F   F   F
  2.8052918445660895  0.0000000000000000  9.4836408864999999   F   F   F
  5.6105836891321790  0.0000000000000000  9.4836408864999999   F   F   F
  0.0000000000000000  2.8052918445660895  9.4836408864999999   F   F   F
  2.8052918445660895  2.8052918445660895  9.4836408864999999   F   F   F
  5.6105836891321790  2.8052918445660895  9.4836408864999999   F   F   F
  0.0000000000000000  5.6105836891321790  9.4836408864999999   F   F   F
  2.8052918445660895  5.6105836891321790  9.4836408864999999   F   F   F
  5.6105836891321790  5.6105836891321790  9.4836408864999999   F   F   F
  1.4026459222830447  1.4026459222830447 11.4672817729999998   F   F   F
  4.2079377668491347  1.4026459222830447 11.4672817729999998   F   F   F
  7.0132296114152233  1.4026459222830447 11.4672817729999998   F   F   F
  1.4026459222830447  4.2079377668491347 11.4672817729999998   F   F   F
  4.2079377668491347  4.2079377668491347 11.4672817729999998   F   F   F
  7.0132296114152233  4.2079377668491347 11.4672817729999998   F   F   F
  1.4026459222830447  7.0132296114152233 11.4672817729999998   F   F   F
  4.2079377668491347  7.0132296114152233 11.4672817729999998   F   F   F
  7.0132296114152233  7.0132296114152233 11.4672817729999998   F   F   F
  0.0000000000000000  0.0000000000000000 13.4509226595000015   F   F   F
  2.8052918445660895  0.0000000000000000 13.4509226595000015   F   F   F
  5.6105836891321790  0.0000000000000000 13.4509226595000015   F   F   F
  0.0000000000000000  2.8052918445660895 13.4509226595000015   F   F   F
  2.8052918445660895  2.8052918445660895 13.4509226595000015   F   F   F
  5.6105836891321790  2.8052918445660895 13.4509226595000015   F   F   F
  0.0000000000000000  5.6105836891321790 13.4509226595000015   F   F   F
  2.8052918445660895  5.6105836891321790 13.4509226595000015   F   F   F
  5.6105836891321790  5.6105836891321790 13.4509226595000015   F   F   F
  1.4197565415010847  1.4257181217163155 15.4874399619347454   T   T   T
  4.1850353447161330  1.4255096590497771 15.4854089885570865   T   T   T
  7.0087159513561321  1.3990294581429459 15.4421674486741161   T   T   T
  1.4231236076642360  4.1873052739857455 15.4902597566018176   T   T   T
  4.1850075734490018  4.1900279515773873 15.4882708827752200   T   T   T
  7.0111359289150803  4.2189021768473278 15.4387814918635424   T   T   T
  1.3919044925851238  7.0154567291216363 15.4387775846462816   T   T   T
  4.2124234864643837  7.0174941492247989 15.4420938108479024   T   T   T
  7.0095373057660790  7.0173378760830678 15.4498127809283829   T   T   T
 -0.0133564387706766 -0.0022120562779006 17.4112355872958915   T   T   T
  2.8003346962888056 -0.0131312105073874 17.3979992334521505   T   T   T
  5.6059280069937634  0.0056368786516123 17.4223662323763762   T   T   T
 -0.0321217853605425  2.8104851347128483 17.4046800000482129   T   T   T
  2.7736709852652837  2.8370121836273761 17.6497590873018559   T   T   T
  5.6227057564823717  2.8093031090002554 17.3992304786577705   T   T   T
 -0.0106100114828822  5.6217948378054148 17.4124137158941181   T   T   T
  2.8008391247297184  5.6423522638178580 17.4045680965582257   T   T   T
  5.6134660567100143  5.6239415572877132 17.4103544194971995   T   T   T
  2.8160677257654294  2.7843752955548178 19.7432721597099601   T   T   T
  3.7725125326722102  1.9108507791143765 20.4004170685040691   T   T   T
  3.0173026415578708  3.7253602534964698 20.1017444992980003   T   T   T
  1.8974790312236638  2.4890898654792069 20.0939558770745101   T   T   T
  4.2550828246371708  1.5013389906344026 19.6413575662730970   T   T   T
