Ag  N  O  H 
 1.0000000000000000
     8.7962652734892650    0.0000000000000000    0.0000000000000000
     0.0000000000000000    8.7962652734892650    0.0000000000000000
     0.0000000000000000    0.0000000000000000   25.3664980399999997
 Ag  N   O   H  
  54   1   1   3
Selective dynamics
Cartesian
  1.4660442122482107  1.4660442122482107  7.5000000000000000   F   F   F
  4.3981326367446325  1.4660442122482107  7.5000000000000000   F   F   F
  7.3302210612410530  1.4660442122482107  7.5000000000000000   F   F   F
  1.4660442122482107  4.3981326367446325  7.5000000000000000   F   F   F
  4.3981326367446325  4.3981326367446325  7.5000000000000000   F   F   F
  7.3302210612410530  4.3981326367446325  7.5000000000000000   F   F   F
  1.4660442122482107  7.3302210612410530  7.5000000000000000   F   F   F
  4.3981326367446325  7.3302210612410530  7.5000000000000000   F   F   F
  7.3302210612410530  7.3302210612410530  7.5000000000000000   F   F   F
  0.0000000000000000  0.0000000000000000  9.5732996079999992   F   F   F
  2.9320884244964214  0.0000000000000000  9.5732996079999992   F   F   F
  5.8641768489928427  0.0000000000000000  9.5732996079999992   F   F   F
  0.0000000000000000  2.9320884244964214  9.5732996079999992   F   F   F
  2.9320884244964214  2.9320884244964214  9.5732996079999992   F   F   F
  5.8641768489928427  2.9320884244964214  9.5732996079999992   F   F   F
  0.0000000000000000  5.8641768489928427  9.5732996079999992   F   F   F
  2.9320884244964214  5.8641768489928427  9.5732996079999992   F   F   F
  5.8641768489928427  5.8641768489928427  9.5732996079999992   F   F   F
  1.4660442122482107  1.4660442122482107 11.6465992160000003   F   F   F
  4.3981326367446325  1.4660442122482107 11.6465992160000003   F   F   F
  7.3302210612410530  1.4660442122482107 11.6465992160000003   F   F   F
  1.4660442122482107  4.3981326367446325 11.6465992160000003   F   F   F
  4.3981326367446325  4.3981326367446325 11.6465992160000003   F   F   F
  7.3302210612410530  4.3981326367446325 11.6465992160000003   F   F   F
  1.4660442122482107  7.3302210612410530 11.6465992160000003   F   F   F
  4.3981326367446325  7.3302210612410530 11.6465992160000003   F   F   F
  7.3302210612410530  7.3302210612410530 11.6465992160000003   F   F   F
  0.0000000000000000  0.0000000000000000 13.7198988240000013   F   F   F
  2.9320884244964214  0.0000000000000000 13.7198988240000013   F   F   F
  5.8641768489928427  0.0000000000000000 13.7198988240000013   F   F   F
  0.0000000000000000  2.9320884244964214 13.7198988240000013   F   F   F
  2.9320884244964214  2.9320884244964214 13.7198988240000013   F   F   F
  5.8641768489928427  2.9320884244964214 13.7198988240000013   F   F   F
  0.0000000000000000  5.8641768489928427 13.7198988240000013   F   F   F
  2.9320884244964214  5.8641768489928427 13.7198988240000013   F   F   F
  5.8641768489928427  5.8641768489928427 13.7198988240000013   F   F   F
  1.4689400617640351  1.4816104198433606 15.8942148054944141   T   T   T
  4.3803542717388533  1.4840757108185945 15.8968383172844021   T   T   T
  7.3231217397429020  1.4613329866957883 15.8656842884294722   T   T   T
  1.4705797956032307  4.3932638888750848 15.8938665518725060   T   T   T
  4.3822097777366142  4.3955900707604361 15.8944738622931201   T   T   T
  7.3227395453230075  4.4046410627698336 15.8670991773163053   T   T   T
  1.4606240270875062  7.3376682098912580 15.8672910753020702   T   T   T
  4.4037539147760123  7.3379015330860620 15.8661056295999785   T   T   T
  7.3281783348796781  7.3330503073770146 15.8761590175962244   T   T   T
 -0.0050649935460217  0.0008943093509376 17.9888349977045863   T   T   T
  2.9324683002414487 -0.0010838228670516 17.9796886012827635   T   T   T
  5.8575650058786897  0.0093134534947778 18.0004174495619225   T   T   T
 -0.0389261310773899  2.9344541888001263 17.9749132471386339   T   T   T
  2.9037965908274148  2.9580649582551741 18.0903890347160541   T   T   T
  5.8643082605491452  2.9336504499960609 17.9790115822685763   T   T   T
 -0.0012318002470911  5.8659226690137718 17.9887238048563134   T   T   T
  2.9301896941605108  5.9018784073957171 17.9746320988378372   T   T   T
  5.8638340024188507  5.8713497518123745 17.9888544293260644   T   T   T
  2.9514446515868094  2.9046550755361422 20.6406986685472660   T   T   T
  3.9378859992618889  2.0048976667677141 21.2224831728734706   T   T   T
  3.1662436768125857  3.8213028759346499 21.0519687125462269   T   T   T
  2.0584364259984076  2.6062580037976377 21.0516759652816319   T   T   T
  4.3580023008917248  1.6133211308068116 20.4262567266996520   T   T   T
