Ir  N  O  H 
 1.0000000000000000
     8.2153868178891649    0.0000000000000000    0.0000000000000000
     0.0000000000000000    8.2153868178891649    0.0000000000000000
     0.0000000000000000    0.0000000000000000   24.6819262150000007
 Ir  N   O   H  
  54   1   1   3
Selective dynamics
Cartesian
  1.3692311363148608  1.3692311363148608  7.5000000000000000   F   F   F
  4.1076934089445825  1.3692311363148608  7.5000000000000000   F   F   F
  6.8461556815743041  1.3692311363148608  7.5000000000000000   F   F   F
  1.3692311363148608  4.1076934089445825  7.5000000000000000   F   F   F
  4.1076934089445825  4.1076934089445825  7.5000000000000000   F   F   F
  6.8461556815743041  4.1076934089445825  7.5000000000000000   F   F   F
  1.3692311363148608  6.8461556815743041  7.5000000000000000   F   F   F
  4.1076934089445825  6.8461556815743041  7.5000000000000000   F   F   F
  6.8461556815743041  6.8461556815743041  7.5000000000000000   F   F   F
  0.0000000000000000  0.0000000000000000  9.4363852430000001   F   F   F
  2.7384622726297216  0.0000000000000000  9.4363852430000001   F   F   F
  5.4769245452594433  0.0000000000000000  9.4363852430000001   F   F   F
  0.0000000000000000  2.7384622726297216  9.4363852430000001   F   F   F
  2.7384622726297216  2.7384622726297216  9.4363852430000001   F   F   F
  5.4769245452594433  2.7384622726297216  9.4363852430000001   F   F   F
  0.0000000000000000  5.4769245452594433  9.4363852430000001   F   F   F
  2.7384622726297216  5.4769245452594433  9.4363852430000001   F   F   F
  5.4769245452594433  5.4769245452594433  9.4363852430000001   F   F   F
  1.3692311363148608  1.3692311363148608 11.3727704860000003   F   F   F
  4.1076934089445825  1.3692311363148608 11.3727704860000003   F   F   F
  6.8461556815743041  1.3692311363148608 11.3727704860000003   F   F   F
  1.3692311363148608  4.1076934089445825 11.3727704860000003   F   F   F
  4.1076934089445825  4.1076934089445825 11.3727704860000003   F   F   F
  6.8461556815743041  4.1076934089445825 11.3727704860000003   F   F   F
  1.3692311363148608  6.8461556815743041 11.3727704860000003   F   F   F
  4.1076934089445825  6.8461556815743041 11.3727704860000003   F   F   F
  6.8461556815743041  6.8461556815743041 11.3727704860000003   F   F   F
  0.0000000000000000  0.0000000000000000 13.3091557290000004   F   F   F
  2.7384622726297216  0.0000000000000000 13.3091557290000004   F   F   F
  5.4769245452594433  0.0000000000000000 13.3091557290000004   F   F   F
  0.0000000000000000  2.7384622726297216 13.3091557290000004   F   F   F
  2.7384622726297216  2.7384622726297216 13.3091557290000004   F   F   F
  5.4769245452594433  2.7384622726297216 13.3091557290000004   F   F   F
  0.0000000000000000  5.4769245452594433 13.3091557290000004   F   F   F
  2.7384622726297216  5.4769245452594433 13.3091557290000004   F   F   F
  5.4769245452594433  5.4769245452594433 13.3091557290000004   F   F   F
  1.3794245305153283  1.3798420386474011 15.2873255144593365   T   T   T
  4.1002545606437852  1.3756985430333946 15.2819793377092346   T   T   T
  6.8451202293137046  1.3666741483538891 15.2641679412427269   T   T   T
  1.3768805559697188  4.0999530167838136 15.2863604319410111   T   T   T
  4.0961530713395033  4.0973225805758746 15.2878271443824225   T   T   T
  6.8446475856333606  4.1138262324835688 15.2622775211359212   T   T   T
  1.3634966392141727  6.8481232955179365 15.2631056533562326   T   T   T
  4.1098168270313078  6.8470991366988700 15.2646888683103477   T   T   T
  6.8461869490754603  6.8455138635434531 15.2553031314816749   T   T   T
 -0.0052472165379515 -0.0018501588043069 17.1201890237709513   T   T   T
  2.7368804288693376 -0.0220425630550115 17.1133019113059177   T   T   T
  5.4771856573709803  0.0002012490440069 17.1210557459086097   T   T   T
 -0.0196205775694287  2.7391895811857547 17.1121773080715691   T   T   T
  2.7354251660633642  2.7425911278621466 17.2316626393792269   T   T   T
  5.4981273467963758  2.7385524590508696 17.1136556664127717   T   T   T
 -0.0065747496310663  5.4828957062099093 17.1201006863255287   T   T   T
  2.7371409987662023  5.4968930281228809 17.1112480524483033   T   T   T
  5.4786364057132273  5.4817335849717947 17.1198364930181199   T   T   T
  2.7444566255471976  2.7239472168350236 19.3725328036810645   T   T   T
  3.6854481682538247  1.8667534229298932 20.0699360582276967   T   T   T
  2.9352239148739212  3.6725676940619811 19.7149610930503769   T   T   T
  1.8172174876003928  2.4369039629853830 19.7060946327623299   T   T   T
  4.1792416781860817  1.4305154158726352 19.3294895825752064   T   T   T
