Cu  N  O  H 
 1.0000000000000000
     7.7122337857502483    0.0000000000000000    0.0000000000000000
     0.0000000000000000    7.7122337857502483    0.0000000000000000
     0.0000000000000000    0.0000000000000000   24.0889546800000005
 Cu  N   O   H  
  54   1   1   3
Selective dynamics
Cartesian
  1.2853722976250412  1.2853722976250412  7.5000000000000000   F   F   F
  3.8561168928751237  1.2853722976250412  7.5000000000000000   F   F   F
  6.4268614881252066  1.2853722976250412  7.5000000000000000   F   F   F
  1.2853722976250412  3.8561168928751237  7.5000000000000000   F   F   F
  3.8561168928751237  3.8561168928751237  7.5000000000000000   F   F   F
  6.4268614881252066  3.8561168928751237  7.5000000000000000   F   F   F
  1.2853722976250412  6.4268614881252066  7.5000000000000000   F   F   F
  3.8561168928751237  6.4268614881252066  7.5000000000000000   F   F   F
  6.4268614881252066  6.4268614881252066  7.5000000000000000   F   F   F
  0.0000000000000000  0.0000000000000000  9.3177909359999997   F   F   F
  2.5707445952500825  0.0000000000000000  9.3177909359999997   F   F   F
  5.1414891905001650  0.0000000000000000  9.3177909359999997   F   F   F
  0.0000000000000000  2.5707445952500825  9.3177909359999997   F   F   F
  2.5707445952500825  2.5707445952500825  9.3177909359999997   F   F   F
  5.1414891905001650  2.5707445952500825  9.3177909359999997   F   F   F
  0.0000000000000000  5.1414891905001650  9.3177909359999997   F   F   F
  2.5707445952500825  5.1414891905001650  9.3177909359999997   F   F   F
  5.1414891905001650  5.1414891905001650  9.3177909359999997   F   F   F
  1.2853722976250412  1.2853722976250412 11.1355818719999995   F   F   F
  3.8561168928751237  1.2853722976250412 11.1355818719999995   F   F   F
  6.4268614881252066  1.2853722976250412 11.1355818719999995   F   F   F
  1.2853722976250412  3.8561168928751237 11.1355818719999995   F   F   F
  3.8561168928751237  3.8561168928751237 11.1355818719999995   F   F   F
  6.4268614881252066  3.8561168928751237 11.1355818719999995   F   F   F
  1.2853722976250412  6.4268614881252066 11.1355818719999995   F   F   F
  3.8561168928751237  6.4268614881252066 11.1355818719999995   F   F   F
  6.4268614881252066  6.4268614881252066 11.1355818719999995   F   F   F
  0.0000000000000000  0.0000000000000000 12.9533728080000010   F   F   F
  2.5707445952500825  0.0000000000000000 12.9533728080000010   F   F   F
  5.1414891905001650  0.0000000000000000 12.9533728080000010   F   F   F
  0.0000000000000000  2.5707445952500825 12.9533728080000010   F   F   F
  2.5707445952500825  2.5707445952500825 12.9533728080000010   F   F   F
  5.1414891905001650  2.5707445952500825 12.9533728080000010   F   F   F
  0.0000000000000000  5.1414891905001650 12.9533728080000010   F   F   F
  2.5707445952500825  5.1414891905001650 12.9533728080000010   F   F   F
  5.1414891905001650  5.1414891905001650 12.9533728080000010   F   F   F
  1.2984964237615111  1.3006585860989299 14.8497144359527358   T   T   T
  3.8351697036394330  1.3029650904283503 14.8549842641281522   T   T   T
  6.4232675721540549  1.2818374137842148 14.8126140774957591   T   T   T
  1.2984126739995296  3.8392473267286840 14.8495710084303951   T   T   T
  3.8377479969797079  3.8403188575199905 14.8515270202790504   T   T   T
  6.4206782422379733  3.8624315726288616 14.8151306789115758   T   T   T
  1.2823708288469644  6.4286746692870089 14.8141091487158221   T   T   T
  3.8628983467484908  6.4265038382851953 14.8141731215966868   T   T   T
  6.4260211705847983  6.4283498350637762 14.8141306133225044   T   T   T
 -0.0031706981607543 -0.0020064900960302 16.6227072129007212   T   T   T
  2.5746844717001371 -0.0275839406984101 16.6249584081348374   T   T   T
  5.1422486792198949  0.0051123022436146 16.6343512667599747   T   T   T
 -0.0395783972917197  2.5722376134774749 16.6167332306758375   T   T   T
  2.5510011877719556  2.5794402338249509 16.8102276956415011   T   T   T
  5.1595567669889544  2.5675628912367365 16.6250404458971062   T   T   T
  0.0003296132512428  5.1442524974918129 16.6258345966294954   T   T   T
  2.5686838843076893  5.1710332865990676 16.6167008118974877   T   T   T
  5.1455109087622715  5.1481052030791927 16.6252586167857039   T   T   T
  2.5579896731742449  2.5727032255040685 18.9624124153589584   T   T   T
  3.5353592020173599  1.6938535478558345 19.5937540836355204   T   T   T
  2.7582207362669959  3.5039083428277431 19.3473230073012239   T   T   T
  1.6529993566929504  2.2795261226075705 19.3504602574317346   T   T   T
  3.9717256225375634  1.2762112058739614 18.8105154585865897   T   T   T
