Pt  N  O  H 
 1.0000000000000000
    11.2211673782643580    0.0000000000000000    0.0000000000000000
     5.6105836891321790    9.7178160096941610    0.0000000000000000
     0.0000000000000000    0.0000000000000000   21.8715335987779369
 Pt  N   O   H  
  64   1   1   2
Selective dynamics
Cartesian
  0.0000000000000000  0.0000000000000000  7.4999999999999991   F   F   F
  2.8052918445660895  0.0000000000000000  7.4999999999999991   F   F   F
  5.6105836891321790  0.0000000000000000  7.4999999999999991   F   F   F
  8.4158755336982694  0.0000000000000000  7.4999999999999991   F   F   F
  1.4026459222830447  2.4294540024235403  7.4999999999999991   F   F   F
  4.2079377668491347  2.4294540024235403  7.4999999999999991   F   F   F
  7.0132296114152233  2.4294540024235403  7.4999999999999991   F   F   F
  9.8185214559813137  2.4294540024235403  7.4999999999999991   F   F   F
  2.8052918445660895  4.8589080048470805  7.4999999999999991   F   F   F
  5.6105836891321790  4.8589080048470805  7.4999999999999991   F   F   F
  8.4158755336982694  4.8589080048470805  7.4999999999999991   F   F   F
 11.2211673782643580  4.8589080048470805  7.4999999999999991   F   F   F
  4.2079377668491347  7.2883620072706208  7.4999999999999991   F   F   F
  7.0132296114152242  7.2883620072706208  7.4999999999999991   F   F   F
  9.8185214559813137  7.2883620072706208  7.4999999999999991   F   F   F
 12.6238133005474040  7.2883620072706208  7.4999999999999991   F   F   F
  1.4026459222830447  0.8098180008078467  9.7905111995926450   F   F   F
  4.2079377668491338  0.8098180008078467  9.7905111995926450   F   F   F
  7.0132296114152242  0.8098180008078467  9.7905111995926450   F   F   F
  9.8185214559813137  0.8098180008078467  9.7905111995926450   F   F   F
  2.8052918445660895  3.2392720032313869  9.7905111995926450   F   F   F
  5.6105836891321790  3.2392720032313869  9.7905111995926450   F   F   F
  8.4158755336982694  3.2392720032313869  9.7905111995926450   F   F   F
 11.2211673782643580  3.2392720032313869  9.7905111995926450   F   F   F
  4.2079377668491347  5.6687260056549276  9.7905111995926450   F   F   F
  7.0132296114152233  5.6687260056549276  9.7905111995926450   F   F   F
  9.8185214559813137  5.6687260056549276  9.7905111995926450   F   F   F
 12.6238133005474040  5.6687260056549276  9.7905111995926450   F   F   F
  5.6105836891321790  8.0981800080784687  9.7905111995926450   F   F   F
  8.4158755336982694  8.0981800080784687  9.7905111995926450   F   F   F
 11.2211673782643580  8.0981800080784687  9.7905111995926450   F   F   F
 14.0264592228304483  8.0981800080784687  9.7905111995926450   F   F   F
 -0.0359404655100387  1.6421016040729504 12.1565507300435840   T   T   T
  2.8005055167333190  1.6300332992507085 12.0778395097867133   T   T   T
  5.6427589011063644  1.6434592037821911 12.1519617325563853   T   T   T
  8.4168041144376851  1.6256436537669645 12.0924505695382081   T   T   T
  1.4007943990540972  4.0502237062275688 12.0847154293951071   T   T   T
  4.2044841339369015  4.0507828899129681 12.0813473271767418   T   T   T
  7.0115846212335819  4.0458461064422950 12.1072657871226674   T   T   T
  9.8177749775083676  4.0442767051049753 12.1076381343718165   T   T   T
  2.8030223100895992  6.4782687305228910 12.0806566993331241   T   T   T
  5.6151818238344076  6.4872132711635642 12.0746920358803482   T   T   T
  8.4145070581818810  6.4990167299804709 12.0547556128614435   T   T   T
 11.2127039074961363  6.4846190356404128 12.0751330715779552   T   T   T
  4.2156231508024451  8.9078843329714381 12.0702120180899026   T   T   T
  7.0112970084497181  8.9321012096894723 12.0760199837428086   T   T   T
  9.8133220823720890  8.9304952202829995 12.0749793799393874   T   T   T
 12.6136884402870546  8.9071482755574980 12.0662096363917826   T   T   T
  0.0103587495886708 -0.0152956695082515 14.4245974211508070   T   T   T
  2.7999863553228832  0.0183418134572897 14.4218200457368049   T   T   T
  5.5933936411519962 -0.0114134672763604 14.4105143968066916   T   T   T
  8.4106340587411950 -0.0580244623669700 14.3569691516485634   T   T   T
  1.4109170940618037  2.4406732644686442 14.4323573152740341   T   T   T
  4.1886098155834874  2.4412216801295030 14.4240167138248001   T   T   T
  7.0116048051577780  2.4260118549357439 14.5203891999062087   T   T   T
  9.8078793699320990  2.4220780360460594 14.5265240349342992   T   T   T
  2.8004246677585019  4.8641809480478813 14.4216288641871468   T   T   T
  5.5962161687279481  4.8852989024136448 14.3972109692085333   T   T   T
  8.4115801214124399  4.9458417679527020 14.3547374506663949   T   T   T
 11.2285075604038465  4.8857150451762879 14.4066515953863181   T   T   T
  4.2055686494261248  7.2841168044141806 14.4130160938592038   T   T   T
  7.0084676582661594  7.3150234114179105 14.4087050222611044   T   T   T
  9.8188699487215523  7.3154007108469115 14.4097909324175166   T   T   T
 12.6199009171863281  7.2842521852610131 14.4105696042416778   T   T   T
  9.0660578147037683  2.4793940550020923 16.5142960048923975   T   T   T
  7.6540585203072196  2.4793656849625716 16.5176859480508398   T   T   T
  9.3916113178595051  3.3392398573773212 16.9759206180332534   T   T   T
  9.3910821899595724  1.6480879540340105 17.0259179728741046   T   T   T
