Au  N  O  H 
 1.0000000000000000
    11.7602134546722201    0.0000000000000000    0.0000000000000000
     5.8801067273361101   10.1846436056736955    0.0000000000000000
     0.0000000000000000    0.0000000000000000   22.2016305575400814
 Au  N   O   H  
  64   1   1   2
Selective dynamics
Cartesian
  0.0000000000000000  0.0000000000000000  7.5000000000000000   F   F   F
  2.9400533636680550  0.0000000000000000  7.5000000000000000   F   F   F
  5.8801067273361101  0.0000000000000000  7.5000000000000000   F   F   F
  8.8201600910041655  0.0000000000000000  7.5000000000000000   F   F   F
  1.4700266818340275  2.5461609014184239  7.5000000000000000   F   F   F
  4.4100800455020828  2.5461609014184239  7.5000000000000000   F   F   F
  7.3501334091701374  2.5461609014184239  7.5000000000000000   F   F   F
 10.2901867728381937  2.5461609014184239  7.5000000000000000   F   F   F
  2.9400533636680550  5.0923218028368478  7.5000000000000000   F   F   F
  5.8801067273361101  5.0923218028368478  7.5000000000000000   F   F   F
  8.8201600910041655  5.0923218028368478  7.5000000000000000   F   F   F
 11.7602134546722201  5.0923218028368478  7.5000000000000000   F   F   F
  4.4100800455020828  7.6384827042552716  7.5000000000000000   F   F   F
  7.3501334091701374  7.6384827042552716  7.5000000000000000   F   F   F
 10.2901867728381937  7.6384827042552716  7.5000000000000000   F   F   F
 13.2302401365062483  7.6384827042552716  7.5000000000000000   F   F   F
  1.4700266818340275  0.8487203004728079  9.9005435191800277   F   F   F
  4.4100800455020828  0.8487203004728079  9.9005435191800277   F   F   F
  7.3501334091701382  0.8487203004728079  9.9005435191800277   F   F   F
 10.2901867728381937  0.8487203004728079  9.9005435191800277   F   F   F
  2.9400533636680550  3.3948812018912315  9.9005435191800277   F   F   F
  5.8801067273361101  3.3948812018912315  9.9005435191800277   F   F   F
  8.8201600910041655  3.3948812018912315  9.9005435191800277   F   F   F
 11.7602134546722219  3.3948812018912315  9.9005435191800277   F   F   F
  4.4100800455020828  5.9410421033096563  9.9005435191800277   F   F   F
  7.3501334091701374  5.9410421033096563  9.9005435191800277   F   F   F
 10.2901867728381937  5.9410421033096563  9.9005435191800277   F   F   F
 13.2302401365062483  5.9410421033096563  9.9005435191800277   F   F   F
  5.8801067273361109  8.4872030047280802  9.9005435191800277   F   F   F
  8.8201600910041655  8.4872030047280802  9.9005435191800277   F   F   F
 11.7602134546722219  8.4872030047280802  9.9005435191800277   F   F   F
 14.7002668183402765  8.4872030047280802  9.9005435191800277   F   F   F
 -0.0159238088277254  1.6902712477748429 12.3137743268496216   T   T   T
  2.9363476275279519  1.7054959258590650 12.3403779563747236   T   T   T
  5.8696581718426888  1.7186122044841456 12.3660253394668231   T   T   T
  8.7899516299814699  1.7149381488249220 12.3628648770653307   T   T   T
  1.4447171191866994  4.2412775182213736 12.3056967162561524   T   T   T
  4.3984113496577244  4.2505019580551107 12.3372675742889228   T   T   T
  7.3266480418438089  4.2420421623518410 12.3662143854996334   T   T   T
 10.2785679822329055  4.2418826566036500 12.3114844468739211   T   T   T
  2.9295770485593304  6.8130087610606633 12.3057193913525449   T   T   T
  5.8714775852708616  6.7889473470342034 12.3404311821428045   T   T   T
  8.8083075428343367  6.8029688852766084 12.3075908157796672   T   T   T
 11.7467117956945053  6.7976706665210775 12.3197511067476420   T   T   T
  4.4084765377162869  9.3533117247359581 12.3137808811897873   T   T   T
  7.3344630178277361  9.3449832126192245 12.3198658988866541   T   T   T
 10.2727192907891300  9.3395826245863951 12.3074346997713366   T   T   T
 13.2260477854551155  9.3469655867775252 12.3114642282710847   T   T   T
 -0.0028337233014164  0.0017654500277027 14.8349089873378617   T   T   T
  2.9101438305238330 -0.0091485802662453 14.8151496398911231   T   T   T
  5.8531408442147805 -0.0295725202927246 14.7513237686899892   T   T   T
  8.8411491437836531 -0.0540117341657502 14.8146754611740334   T   T   T
  1.4201339267597854  2.5592084768185095 14.8132330188254304   T   T   T
  4.2829245899229793  2.5367460636704604 14.7750209493756088   T   T   T
  7.4850253998053642  2.4679134269187850 14.8181939486661260   T   T   T
 10.3471155272059026  2.5551529135579991 14.8147158604008613   T   T   T
  2.8471834011912898  5.1461179920128162 14.7283431630618900   T   T   T
  5.8250976753740575  5.2069381318723833 14.7754509594178849   T   T   T
  8.8321602384074609  5.1301561552949693 14.7517721122737413   T   T   T
 11.7264636175193306  5.1194745502398318 14.8083132489691245   T   T   T
  4.3743586444209832  7.6750324992261074 14.8133627024300409   T   T   T
  7.3432576255424387  7.6689382993831590 14.8153227359991746   T   T   T
 10.2622580293030303  7.6545148528214177 14.8107198453208699   T   T   T
 13.1900473727887704  7.6542162205979976 14.8082893853169324   T   T   T
  6.6019695594226029  2.9765249862583980 16.9041702303154402   T   T   T
  5.3927946741922472  3.6753109293931101 16.6739682698064122   T   T   T
  7.2219434404166325  3.5813038581778214 17.4576274704491183   T   T   T
  6.3872498192780736  2.1366449341006595 17.4565223631123949   T   T   T
