Pd  N  O  H 
 1.0000000000000000
    11.1449118996936107    0.0000000000000000    0.0000000000000000
     5.5724559498468054    9.6517768280741532    0.0000000000000000
     0.0000000000000000    0.0000000000000000   21.8248368456304220
 Pd  N   O   H  
  64   1   1   2
Selective dynamics
Cartesian
  0.0000000000000000  0.0000000000000000  7.5000000000000000   F   F   F
  2.7862279749234027  0.0000000000000000  7.5000000000000000   F   F   F
  5.5724559498468054  0.0000000000000000  7.5000000000000000   F   F   F
  8.3586839247702081  0.0000000000000000  7.5000000000000000   F   F   F
  1.3931139874617013  2.4129442070185383  7.5000000000000000   F   F   F
  4.1793419623851040  2.4129442070185383  7.5000000000000000   F   F   F
  6.9655699373085067  2.4129442070185383  7.5000000000000000   F   F   F
  9.7517979122319094  2.4129442070185383  7.5000000000000000   F   F   F
  2.7862279749234027  4.8258884140370766  7.5000000000000000   F   F   F
  5.5724559498468054  4.8258884140370766  7.5000000000000000   F   F   F
  8.3586839247702081  4.8258884140370766  7.5000000000000000   F   F   F
 11.1449118996936107  4.8258884140370766  7.5000000000000000   F   F   F
  4.1793419623851040  7.2388326210556144  7.5000000000000000   F   F   F
  6.9655699373085067  7.2388326210556144  7.5000000000000000   F   F   F
  9.7517979122319094  7.2388326210556144  7.5000000000000000   F   F   F
 12.5380258871553121  7.2388326210556144  7.5000000000000000   F   F   F
  1.3931139874617013  0.8043147356728461  9.7749456152101395   F   F   F
  4.1793419623851040  0.8043147356728461  9.7749456152101395   F   F   F
  6.9655699373085067  0.8043147356728461  9.7749456152101395   F   F   F
  9.7517979122319094  0.8043147356728461  9.7749456152101395   F   F   F
  2.7862279749234027  3.2172589426913842  9.7749456152101395   F   F   F
  5.5724559498468054  3.2172589426913842  9.7749456152101395   F   F   F
  8.3586839247702081  3.2172589426913842  9.7749456152101395   F   F   F
 11.1449118996936107  3.2172589426913842  9.7749456152101395   F   F   F
  4.1793419623851040  5.6302031497099234  9.7749456152101395   F   F   F
  6.9655699373085067  5.6302031497099234  9.7749456152101395   F   F   F
  9.7517979122319094  5.6302031497099234  9.7749456152101395   F   F   F
 12.5380258871553121  5.6302031497099234  9.7749456152101395   F   F   F
  5.5724559498468054  8.0431473567284613  9.7749456152101395   F   F   F
  8.3586839247702081  8.0431473567284613  9.7749456152101395   F   F   F
 11.1449118996936107  8.0431473567284613  9.7749456152101395   F   F   F
 13.9311398746170134  8.0431473567284613  9.7749456152101395   F   F   F
 -0.0163811935371716  1.6289505941966369 12.1267540923860260   T   T   T
  2.7882573398243857  1.6272525613841420 12.0776894031084350   T   T   T
  5.5960130441549083  1.6318535494596909 12.1326959280572577   T   T   T
  8.3611831728774266  1.6190394382927973 12.0855091972818460   T   T   T
  1.3935252808659664  4.0291374804731843 12.0732631697865038   T   T   T
  4.1818826978839043  4.0297942142805940 12.0721298090105318   T   T   T
  6.9673773233428804  4.0203591107851482 12.0999686201926959   T   T   T
  9.7530275494881966  4.0220502339578434 12.0992728874366229   T   T   T
  2.7880116493140523  6.4400929412514563 12.0693527914347136   T   T   T
  5.5779426641409211  6.4415436636565326 12.0677154310853716   T   T   T
  8.3597441395914149  6.4463789888029526 12.0579687083458573   T   T   T
 11.1422650062050810  6.4410277427268117 12.0672216793658365   T   T   T
  4.1881087248117712  8.8529154978031688 12.0613204893995576   T   T   T
  6.9687324945075577  8.8659029067991888 12.0698396480753676   T   T   T
  9.7520871138798508  8.8668834632063209 12.0717309542562017   T   T   T
 12.5327992670227957  8.8526711661237538 12.0594427868730492   T   T   T
  0.0153503819027709  0.0033396987031174 14.4010503310761884   T   T   T
  2.7882787665002962  0.0282634072305856 14.3990066655582893   T   T   T
  5.5642639778085066  0.0060660063674773 14.3957938271669779   T   T   T
  8.3605372962857505 -0.0329888105625881 14.3426913099985303   T   T   T
  1.3977079922583426  2.4334303097285410 14.4122972460142016   T   T   T
  4.1775363451789218  2.4346101245715532 14.4073638491221292   T   T   T
  6.9917108405755695  2.4318648737347326 14.5170023445394012   T   T   T
  9.7431086239925335  2.4255239910526449 14.4998917544686705   T   T   T
  2.7884386697251586  4.8381996987004570 14.3940532614431778   T   T   T
  5.5693973740097853  4.8577231594372741 14.3873195781867107   T   T   T
  8.3600129989745433  4.9075398098741410 14.3606737362295682   T   T   T
 11.1548647388027575  4.8595614475727720 14.3931199723479981   T   T   T
  4.1849710147279904  7.2495745425070517 14.3888184824764434   T   T   T
  6.9676245977504481  7.2701457146318260 14.3874457125506208   T   T   T
  9.7557046465960848  7.2675333405937961 14.3883953211155529   T   T   T
 12.5387196733393047  7.2485395178617456 14.3871647461304324   T   T   T
  9.0281689127644000  2.4230247027536671 16.5036174079550300   T   T   T
  7.6390261079032298  2.4430884772636126 16.5042748724756159   T   T   T
  9.3886573523046195  3.2633262965553200 16.9740524324114865   T   T   T
  9.3666739075243832  1.5693298101807824 16.9666540919046938   T   T   T
