Ag  N  O  H 
 1.0000000000000000
    11.7283536979856873    0.0000000000000000    0.0000000000000000
     5.8641768489928436   10.1570522470247671    0.0000000000000000
     0.0000000000000000    0.0000000000000000   22.1821205207372749
 Ag  N   O   H  
  64   1   1   2
Selective dynamics
Cartesian
  0.0000000000000000  0.0000000000000000  7.5000000000000000   F   F   F
  2.9320884244964218  0.0000000000000000  7.5000000000000000   F   F   F
  5.8641768489928436  0.0000000000000000  7.5000000000000000   F   F   F
  8.7962652734892650  0.0000000000000000  7.5000000000000000   F   F   F
  1.4660442122482109  2.5392630617561918  7.5000000000000000   F   F   F
  4.3981326367446325  2.5392630617561918  7.5000000000000000   F   F   F
  7.3302210612410548  2.5392630617561918  7.5000000000000000   F   F   F
 10.2623094857374753  2.5392630617561918  7.5000000000000000   F   F   F
  2.9320884244964218  5.0785261235123835  7.5000000000000000   F   F   F
  5.8641768489928436  5.0785261235123835  7.5000000000000000   F   F   F
  8.7962652734892650  5.0785261235123835  7.5000000000000000   F   F   F
 11.7283536979856873  5.0785261235123835  7.5000000000000000   F   F   F
  4.3981326367446325  7.6177891852685757  7.5000000000000000   F   F   F
  7.3302210612410548  7.6177891852685757  7.5000000000000000   F   F   F
 10.2623094857374753  7.6177891852685757  7.5000000000000000   F   F   F
 13.1943979102338975  7.6177891852685757  7.5000000000000000   F   F   F
  1.4660442122482109  0.8464210205853973  9.8940401735790910   F   F   F
  4.3981326367446325  0.8464210205853973  9.8940401735790910   F   F   F
  7.3302210612410548  0.8464210205853973  9.8940401735790910   F   F   F
 10.2623094857374770  0.8464210205853973  9.8940401735790910   F   F   F
  2.9320884244964218  3.3856840823415890  9.8940401735790910   F   F   F
  5.8641768489928436  3.3856840823415890  9.8940401735790910   F   F   F
  8.7962652734892650  3.3856840823415890  9.8940401735790910   F   F   F
 11.7283536979856891  3.3856840823415890  9.8940401735790910   F   F   F
  4.3981326367446325  5.9249471440977812  9.8940401735790910   F   F   F
  7.3302210612410548  5.9249471440977812  9.8940401735790910   F   F   F
 10.2623094857374770  5.9249471440977812  9.8940401735790910   F   F   F
 13.1943979102338993  5.9249471440977812  9.8940401735790910   F   F   F
  5.8641768489928445  8.4642102058539734  9.8940401735790910   F   F   F
  8.7962652734892650  8.4642102058539734  9.8940401735790910   F   F   F
 11.7283536979856891  8.4642102058539734  9.8940401735790910   F   F   F
 14.6604421224821095  8.4642102058539734  9.8940401735790910   F   F   F
 -0.0145733596272961  1.7179556852949969 12.3378422998095694   T   T   T
  2.9349534170557745  1.6973255825384237 12.3002647404384362   T   T   T
  5.8879482433680641  1.7154959490931116 12.3443408471721394   T   T   T
  8.8031266392127741  1.7234068827364550 12.3626205125128390   T   T   T
  1.4693491923567246  4.2431264098960764 12.3050360389915845   T   T   T
  4.3957305486844271  4.2382986847261925 12.3056156397225251   T   T   T
  7.3359837394865206  4.2396754729927091 12.3400042010030795   T   T   T
 10.2501823187605314  4.2364201972109061 12.3601900445932902   T   T   T
  2.9339205613882600  6.7840825366075990 12.3129072157481154   T   T   T
  5.8670807799311504  6.7868864514174652 12.3065824110533928   T   T   T
  8.7963190037617949  6.7621321357642232 12.3412919013890168   T   T   T
 11.7301444654464380  6.7880492159068391 12.3024247699637161   T   T   T
  4.4041334357962301  9.3243325104217867 12.3058804124985883   T   T   T
  7.3368226068220546  9.3258153240283974 12.3008058502594597   T   T   T
 10.2647222923692532  9.3233772289403074 12.3046552168507386   T   T   T
 13.1964412574334560  9.3223414753836220 12.3032071158710821   T   T   T
  0.0217404182637715 -0.0036678441733622 14.7509613856985382   T   T   T
  2.9430647106024397  0.0151844619900897 14.7559197091231340   T   T   T
  5.8666534157758168  0.0113670124003808 14.7568054829243618   T   T   T
  8.7989659916622713 -0.0070304683014381 14.7294363487452564   T   T   T
  1.5066114659407641  2.5580554971575373 14.7503378151640856   T   T   T
  4.3884102307874056  2.5569695499884104 14.7556034440824870   T   T   T
  7.2865292199809524  2.5498556721740950 14.8247966010245502   T   T   T
 10.3584388965127712  2.5181331944001646 14.8352707672998925   T   T   T
  2.9279194933896808  5.1047225207867397 14.7660622516825573   T   T   T
  5.8154774624188708  5.1266340800345738 14.7225577417302596   T   T   T
  8.7747149259203461  5.1498726492949949 14.8182851408153624   T   T   T
 11.7551391695782126  5.1196735746152129 14.7264737250619540   T   T   T
  4.3928452660352519  7.6427464892415431 14.7661134469464592   T   T   T
  7.3225711199590133  7.6541415022211341 14.7553915966704281   T   T   T
 10.2684669277194729  7.6421064217288972 14.7551256486086046   T   T   T
 13.1957916899497185  7.6402986737928078 14.7635148291218172   T   T   T
  9.5217975725239956  3.0094787879426721 16.9999326923253093   T   T   T
  8.2951408070845414  3.6983751706583479 16.6672574245559773   T   T   T
 10.0686802870428291  3.6482614858820055 17.5925036144533635   T   T   T
  9.2631566047485698  2.2133895699676289 17.5973370796779598   T   T   T
