Cu  N  O  H 
 1.0000000000000000
    10.2829783810003317    0.0000000000000000    0.0000000000000000
     5.1414891905001658    8.9053205045124635    0.0000000000000000
     0.0000000000000000    0.0000000000000000   21.2970125173803737
 Cu  N   O   H  
  64   1   1   2
Selective dynamics
Cartesian
  0.0000000000000000  0.0000000000000000  7.5000000000000009   F   F   F
  2.5707445952500829  0.0000000000000000  7.5000000000000009   F   F   F
  5.1414891905001658  0.0000000000000000  7.5000000000000009   F   F   F
  7.7122337857502483  0.0000000000000000  7.5000000000000009   F   F   F
  1.2853722976250415  2.2263301261281159  7.5000000000000009   F   F   F
  3.8561168928751242  2.2263301261281159  7.5000000000000009   F   F   F
  6.4268614881252075  2.2263301261281159  7.5000000000000009   F   F   F
  8.9976060833752900  2.2263301261281159  7.5000000000000009   F   F   F
  2.5707445952500829  4.4526602522562317  7.5000000000000009   F   F   F
  5.1414891905001658  4.4526602522562317  7.5000000000000009   F   F   F
  7.7122337857502483  4.4526602522562317  7.5000000000000009   F   F   F
 10.2829783810003317  4.4526602522562317  7.5000000000000009   F   F   F
  3.8561168928751242  6.6789903783843476  7.5000000000000009   F   F   F
  6.4268614881252075  6.6789903783843476  7.5000000000000009   F   F   F
  8.9976060833752900  6.6789903783843476  7.5000000000000009   F   F   F
 11.5683506786253734  6.6789903783843476  7.5000000000000009   F   F   F
  1.2853722976250415  0.7421100420427053  9.5990041724601252   F   F   F
  3.8561168928751242  0.7421100420427053  9.5990041724601252   F   F   F
  6.4268614881252075  0.7421100420427053  9.5990041724601252   F   F   F
  8.9976060833752900  0.7421100420427053  9.5990041724601252   F   F   F
  2.5707445952500829  2.9684401681708210  9.5990041724601252   F   F   F
  5.1414891905001658  2.9684401681708210  9.5990041724601252   F   F   F
  7.7122337857502492  2.9684401681708210  9.5990041724601252   F   F   F
 10.2829783810003317  2.9684401681708210  9.5990041724601252   F   F   F
  3.8561168928751246  5.1947702942989373  9.5990041724601252   F   F   F
  6.4268614881252075  5.1947702942989373  9.5990041724601252   F   F   F
  8.9976060833752900  5.1947702942989373  9.5990041724601252   F   F   F
 11.5683506786253734  5.1947702942989373  9.5990041724601252   F   F   F
  5.1414891905001658  7.4211004204270532  9.5990041724601252   F   F   F
  7.7122337857502483  7.4211004204270532  9.5990041724601252   F   F   F
 10.2829783810003317  7.4211004204270532  9.5990041724601252   F   F   F
 12.8537229762504150  7.4211004204270532  9.5990041724601252   F   F   F
 -0.0146076997082688  1.5076354212087155 11.7328816769011102   T   T   T
  2.5752360472447529  1.4878184945936075 11.6951201500700712   T   T   T
  5.1660125466899904  1.5096706516449847 11.7395560047353875   T   T   T
  7.7196595780738821  1.5154807142557010 11.7539239130114925   T   T   T
  1.2870519026992184  3.7191914614086965 11.6955630969289590   T   T   T
  3.8530585310279548  3.7169946483499614 11.6965143568034140   T   T   T
  6.4329050619688983  3.7192703230186819 11.7291501693786131   T   T   T
  8.9854496450152475  3.7098462593823234 11.7556188652169933   T   T   T
  2.5708463461544153  5.9499982684457198 11.7062616137658928   T   T   T
  5.1447379184581594  5.9522129998918949 11.6960270086878015   T   T   T
  7.7130988614078904  5.9214086542193662 11.7397965980769996   T   T   T
 10.2818787796403583  5.9508295136177978 11.6958987576847306   T   T   T
  3.8613745741968821  8.1771429028169536 11.6965345326036907   T   T   T
  6.4344056732035675  8.1747453593629640 11.6940252465121421   T   T   T
  9.0005729007639186  8.1731289644551453 11.6980441165958755   T   T   T
 11.5674656466469994  8.1760606542963448 11.6970383215753415   T   T   T
  0.0248087791708721 -0.0098275164168143 13.8069809698755126   T   T   T
  2.5823046744102331  0.0135759384316117 13.8152553539146243   T   T   T
  5.1431183824944418  0.0138814240195889 13.8184160365975437   T   T   T
  7.7124902908710382 -0.0107695637844047 13.7842149778645506   T   T   T
  1.3293454758502479  2.2435515258739880 13.8057777355557789   T   T   T
  3.8438354667462220  2.2458384340992290 13.8149654192296527   T   T   T
  6.3835177051284582  2.2502262841166623 13.9091791618655343   T   T   T
  9.0975577946091359  2.1953302727835760 13.9355716325171866   T   T   T
  2.5646272333000870  4.4782724353594796 13.8222576543451829   T   T   T
  5.0834809639417422  4.5081840450939890 13.7736568635952281   T   T   T
  7.6876590302535037  4.5182975030986050 13.9084069312241372   T   T   T
 10.3150869746009999  4.4946203490532710 13.7808188529502225   T   T   T
  3.8493777021330744  6.7060499985097897 13.8216033473448583   T   T   T
  6.4196031088273848  6.7146264058207894 13.8130483283681968   T   T   T
  9.0055820772184987  6.7038578982664889 13.8162713111131907   T   T   T
 11.5679602475496157  6.7028023582608869 13.8221392371750120   T   T   T
  8.4672024773232675  2.5733178830887531 15.8810987516252542   T   T   T
  7.2322213839682883  3.2814977283564448 15.5495894598060573   T   T   T
  9.0175620769045608  3.2108080139459436 16.4701915901531457   T   T   T
  8.1936499124884978  1.7788079241170520 16.4723523152621283   T   T   T
