Ir  N  O  H 
 1.0000000000000000
    10.9538490905188866    0.0000000000000000    0.0000000000000000
     5.4769245452594433    9.4863115816104226    0.0000000000000000
     0.0000000000000000    0.0000000000000000   21.7078352478052139
 Ir  N   O   H  
  64   1   1   2
Selective dynamics
Cartesian
  0.0000000000000000  0.0000000000000000  7.4999999999999991   F   F   F
  2.7384622726297216  0.0000000000000000  7.4999999999999991   F   F   F
  5.4769245452594433  0.0000000000000000  7.4999999999999991   F   F   F
  8.2153868178891649  0.0000000000000000  7.4999999999999991   F   F   F
  1.3692311363148608  2.3715778954026057  7.4999999999999991   F   F   F
  4.1076934089445825  2.3715778954026057  7.4999999999999991   F   F   F
  6.8461556815743041  2.3715778954026057  7.4999999999999991   F   F   F
  9.5846179542040257  2.3715778954026057  7.4999999999999991   F   F   F
  2.7384622726297216  4.7431557908052113  7.4999999999999991   F   F   F
  5.4769245452594433  4.7431557908052113  7.4999999999999991   F   F   F
  8.2153868178891649  4.7431557908052113  7.4999999999999991   F   F   F
 10.9538490905188866  4.7431557908052113  7.4999999999999991   F   F   F
  4.1076934089445825  7.1147336862078170  7.4999999999999991   F   F   F
  6.8461556815743041  7.1147336862078170  7.4999999999999991   F   F   F
  9.5846179542040257  7.1147336862078170  7.4999999999999991   F   F   F
 12.3230802268337474  7.1147336862078170  7.4999999999999991   F   F   F
  1.3692311363148608  0.7905259651342018  9.7359450826017380   F   F   F
  4.1076934089445825  0.7905259651342018  9.7359450826017380   F   F   F
  6.8461556815743041  0.7905259651342018  9.7359450826017380   F   F   F
  9.5846179542040257  0.7905259651342018  9.7359450826017380   F   F   F
  2.7384622726297216  3.1621038605368073  9.7359450826017380   F   F   F
  5.4769245452594433  3.1621038605368073  9.7359450826017380   F   F   F
  8.2153868178891649  3.1621038605368073  9.7359450826017380   F   F   F
 10.9538490905188866  3.1621038605368073  9.7359450826017380   F   F   F
  4.1076934089445825  5.5336817559394138  9.7359450826017380   F   F   F
  6.8461556815743041  5.5336817559394138  9.7359450826017380   F   F   F
  9.5846179542040257  5.5336817559394138  9.7359450826017380   F   F   F
 12.3230802268337474  5.5336817559394138  9.7359450826017380   F   F   F
  5.4769245452594433  7.9052596513420195  9.7359450826017380   F   F   F
  8.2153868178891649  7.9052596513420195  9.7359450826017380   F   F   F
 10.9538490905188866  7.9052596513420195  9.7359450826017380   F   F   F
 13.6923113631486082  7.9052596513420195  9.7359450826017380   F   F   F
 -0.0200541310624896  1.5924832264990068 11.9818435277183806   T   T   T
  2.7377425998063254  1.5852393216540088 11.9489970337221010   T   T   T
  5.5003020612643132  1.5934122892398042 11.9859894338304329   T   T   T
  8.2158194973730385  1.5736872907768669 11.9524910505254649   T   T   T
  1.3653646683771903  3.9493900035201182 11.9499973260374084   T   T   T
  4.1100442037925733  3.9501327369927335 11.9495689983052262   T   T   T
  6.8501394346766835  3.9283027958374377 11.9761097227473776   T   T   T
  9.5823841700479058  3.9363012745324371 11.9654995837496649   T   T   T
  2.7388164318782757  6.3216957805782705 11.9448145547254185   T   T   T
  5.4805879555774384  6.3200727303764497 11.9438013940379211   T   T   T
  8.2152643825173453  6.3235861156002695 11.9312362499918976   T   T   T
 10.9501359839223156  6.3213824279120052 11.9443119885398179   T   T   T
  4.1108842076584029  8.6972357562021543 11.9395664586888444   T   T   T
  6.8451858900763565  8.7036618739039415 11.9401749951511924   T   T   T
  9.5848670739241761  8.7051728434547950 11.9400081310660511   T   T   T
 12.3194860113002171  8.6965823301652865 11.9392580324222095   T   T   T
  0.0039240439386245 -0.0138787470581066 14.1553151631178036   T   T   T
  2.7384217892990446  0.0025059462794058 14.1556449570183247   T   T   T
  5.4740288630606679 -0.0114705797727984 14.1523240255189791   T   T   T
  8.2151410144087293 -0.0625689942063060 14.1305560004525095   T   T   T
  1.3814944565669456  2.3750575602851840 14.1601617969185849   T   T   T
  4.0943796672633344  2.3751494927490087 14.1582478200826412   T   T   T
  6.8621113258794217  2.3851053245308527 14.2478914995579498   T   T   T
  9.5731127564270011  2.3735937350690444 14.2509392474441494   T   T   T
  2.7380389735917285  4.7447130197275182 14.1579963698676572   T   T   T
  5.4652219097934225  4.7578698979958194 14.1536245846806228   T   T   T
  8.2177238587192054  4.8057990768277268 14.1329092711819833   T   T   T
 10.9620410398417185  4.7573209174595412 14.1566747244870683   T   T   T
  4.1139638100336979  7.1085788136589549 14.1535554322103412   T   T   T
  6.8465868877444729  7.1238832276213415 14.1507671199773046   T   T   T
  9.5859790625054746  7.1293478544624653 14.1528197829546638   T   T   T
 12.3169730815058074  7.1097890691201000 14.1522596062834936   T   T   T
  8.8638475447694525  2.3711141250618213 16.2696346908303795   T   T   T
  7.4252258871441148  2.4061929799741257 16.2506481096764865   T   T   T
  9.1787881404484164  3.1964392843852227 16.7955700872536298   T   T   T
  9.1404202473740401  1.5178015940684564 16.7725234310915994   T   T   T
