Ag  N  O 
 1.0000000000000000
    11.7283536979856873    0.0000000000000000    0.0000000000000000
     5.8641768489928436   10.1570522470247671    0.0000000000000000
     0.0000000000000000    0.0000000000000000   22.1821205207372749
 Ag  N   O  
  64   1   2
Selective dynamics
Cartesian
  0.0000000000000000  0.0000000000000000  7.5000000000000000   F   F   F
  2.9320884244964218  0.0000000000000000  7.5000000000000000   F   F   F
  5.8641768489928436  0.0000000000000000  7.5000000000000000   F   F   F
  8.7962652734892650  0.0000000000000000  7.5000000000000000   F   F   F
  1.4660442122482109  2.5392630617561918  7.5000000000000000   F   F   F
  4.3981326367446325  2.5392630617561918  7.5000000000000000   F   F   F
  7.3302210612410548  2.5392630617561918  7.5000000000000000   F   F   F
 10.2623094857374753  2.5392630617561918  7.5000000000000000   F   F   F
  2.9320884244964218  5.0785261235123835  7.5000000000000000   F   F   F
  5.8641768489928436  5.0785261235123835  7.5000000000000000   F   F   F
  8.7962652734892650  5.0785261235123835  7.5000000000000000   F   F   F
 11.7283536979856873  5.0785261235123835  7.5000000000000000   F   F   F
  4.3981326367446325  7.6177891852685757  7.5000000000000000   F   F   F
  7.3302210612410548  7.6177891852685757  7.5000000000000000   F   F   F
 10.2623094857374753  7.6177891852685757  7.5000000000000000   F   F   F
 13.1943979102338975  7.6177891852685757  7.5000000000000000   F   F   F
  1.4660442122482109  0.8464210205853973  9.8940401735790910   F   F   F
  4.3981326367446325  0.8464210205853973  9.8940401735790910   F   F   F
  7.3302210612410548  0.8464210205853973  9.8940401735790910   F   F   F
 10.2623094857374770  0.8464210205853973  9.8940401735790910   F   F   F
  2.9320884244964218  3.3856840823415890  9.8940401735790910   F   F   F
  5.8641768489928436  3.3856840823415890  9.8940401735790910   F   F   F
  8.7962652734892650  3.3856840823415890  9.8940401735790910   F   F   F
 11.7283536979856891  3.3856840823415890  9.8940401735790910   F   F   F
  4.3981326367446325  5.9249471440977812  9.8940401735790910   F   F   F
  7.3302210612410548  5.9249471440977812  9.8940401735790910   F   F   F
 10.2623094857374770  5.9249471440977812  9.8940401735790910   F   F   F
 13.1943979102338993  5.9249471440977812  9.8940401735790910   F   F   F
  5.8641768489928445  8.4642102058539734  9.8940401735790910   F   F   F
  8.7962652734892650  8.4642102058539734  9.8940401735790910   F   F   F
 11.7283536979856891  8.4642102058539734  9.8940401735790910   F   F   F
 14.6604421224821095  8.4642102058539734  9.8940401735790910   F   F   F
 -0.0007768949497852  1.6929555104882967 12.2991311188999415   T   T   T
  2.9348216739835697  1.6894636884321539 12.3000741011677732   T   T   T
  5.8822063440828956  1.7039300708856999 12.3395692212371291   T   T   T
  8.7847434529106003  1.7021414059795601 12.3292685435643037   T   T   T
  1.4650077487256006  4.2304051559155038 12.3019654298272165   T   T   T
  4.3981816844431938  4.2292452497343138 12.3033219639954403   T   T   T
  7.3370206225450207  4.2269206405677435 12.3358533815939158   T   T   T
 10.2466384170079969  4.2366003794163802 12.3298933353331233   T   T   T
  2.9295518560800575  6.7716447495087557 12.3050758934761895   T   T   T
  5.8664836776459044  6.7706690444099795 12.3033996264048486   T   T   T
  8.7946941482195324  6.7494530279599934 12.3390431239693701   T   T   T
 11.7275791311943678  6.7715743820487306 12.3057290531962185   T   T   T
  4.3986852903176317  9.3107430275099574 12.3016305141093198   T   T   T
  7.3337161145044307  9.3095361966884891 12.2997021387434327   T   T   T
 10.2620001741130586  9.3100716666046921 12.2995901118405957   T   T   T
 13.1929892839916985  9.3100821532528588 12.3058713948597607   T   T   T
  0.0046857759626701 -0.0037301383130491 14.7447866815500852   T   T   T
  2.9330545716438312 -0.0013314771802874 14.7451348542688390   T   T   T
  5.8606917457260064 -0.0085574052109211 14.7421458626985054   T   T   T
  8.7998304015232094 -0.0156842566505075 14.7358954719947004   T   T   T
  1.4712100752966344  2.5356360602999861 14.7453722632893740   T   T   T
  4.3841040385698671  2.5381783427538220 14.7395467141644225   T   T   T
  7.3363496718470333  2.5445985192250578 14.8257343409698343   T   T   T
 10.2902159902810695  2.5223133223698908 14.7265342702781830   T   T   T
  2.9245423797984311  5.0795454217454061 14.7495765682129978   T   T   T
  5.8338258011405806  5.0939695044689977 14.7201307248464470   T   T   T
  8.7920353328372034  5.0686514568604091 14.8261567205878695   T   T   T
 11.7402658939057343  5.0811517456205522 14.7371045520794510   T   T   T
  4.3925455874147268  7.6208665488509881 14.7490908396759650   T   T   T
  7.3222196394290950  7.6302722276576693 14.7383793360553401   T   T   T
 10.2658771016912489  7.6229205610321413 14.7418954545932248   T   T   T
 13.1939333353075590  7.6161364013745185 14.7506576359543349   T   T   T
  8.0466993502715916  3.8116643752706159 17.8469465000797847   T   T   T
  8.5640753463010988  4.7792887016849317 17.2199264733254545   T   T   T
  7.5328362283075663  2.8420192497050878 17.2199090014133169   T   T   T
