Ir  N  O 
 1.0000000000000000
    10.9538490905188866    0.0000000000000000    0.0000000000000000
     5.4769245452594433    9.4863115816104226    0.0000000000000000
     0.0000000000000000    0.0000000000000000   21.7078352478052139
 Ir  N   O  
  64   1   2
Selective dynamics
Cartesian
  0.0000000000000000  0.0000000000000000  7.4999999999999991   F   F   F
  2.7384622726297216  0.0000000000000000  7.4999999999999991   F   F   F
  5.4769245452594433  0.0000000000000000  7.4999999999999991   F   F   F
  8.2153868178891649  0.0000000000000000  7.4999999999999991   F   F   F
  1.3692311363148608  2.3715778954026057  7.4999999999999991   F   F   F
  4.1076934089445825  2.3715778954026057  7.4999999999999991   F   F   F
  6.8461556815743041  2.3715778954026057  7.4999999999999991   F   F   F
  9.5846179542040257  2.3715778954026057  7.4999999999999991   F   F   F
  2.7384622726297216  4.7431557908052113  7.4999999999999991   F   F   F
  5.4769245452594433  4.7431557908052113  7.4999999999999991   F   F   F
  8.2153868178891649  4.7431557908052113  7.4999999999999991   F   F   F
 10.9538490905188866  4.7431557908052113  7.4999999999999991   F   F   F
  4.1076934089445825  7.1147336862078170  7.4999999999999991   F   F   F
  6.8461556815743041  7.1147336862078170  7.4999999999999991   F   F   F
  9.5846179542040257  7.1147336862078170  7.4999999999999991   F   F   F
 12.3230802268337474  7.1147336862078170  7.4999999999999991   F   F   F
  1.3692311363148608  0.7905259651342018  9.7359450826017380   F   F   F
  4.1076934089445825  0.7905259651342018  9.7359450826017380   F   F   F
  6.8461556815743041  0.7905259651342018  9.7359450826017380   F   F   F
  9.5846179542040257  0.7905259651342018  9.7359450826017380   F   F   F
  2.7384622726297216  3.1621038605368073  9.7359450826017380   F   F   F
  5.4769245452594433  3.1621038605368073  9.7359450826017380   F   F   F
  8.2153868178891649  3.1621038605368073  9.7359450826017380   F   F   F
 10.9538490905188866  3.1621038605368073  9.7359450826017380   F   F   F
  4.1076934089445825  5.5336817559394138  9.7359450826017380   F   F   F
  6.8461556815743041  5.5336817559394138  9.7359450826017380   F   F   F
  9.5846179542040257  5.5336817559394138  9.7359450826017380   F   F   F
 12.3230802268337474  5.5336817559394138  9.7359450826017380   F   F   F
  5.4769245452594433  7.9052596513420195  9.7359450826017380   F   F   F
  8.2153868178891649  7.9052596513420195  9.7359450826017380   F   F   F
 10.9538490905188866  7.9052596513420195  9.7359450826017380   F   F   F
 13.6923113631486082  7.9052596513420195  9.7359450826017380   F   F   F
 -0.0029214101597603  1.5837441304014224 11.9317372940376707   T   T   T
  2.7439218394687033  1.5775524917017227 11.9374996674685079   T   T   T
  5.4978350362151556  1.5934666417297649 11.9865075570992197   T   T   T
  8.2010104350385387  1.5930484173067250 11.9651987758836462   T   T   T
  1.3645052972134475  3.9519430664437554 11.9446758300075668   T   T   T
  4.1084114123687510  3.9493263698073720 11.9398727050818678   T   T   T
  6.8458529575606288  3.9575683966184334 11.9547416168982128   T   T   T
  9.5698179899528597  3.9584850479688418 11.9601247195701355   T   T   T
  2.7367771048867993  6.3248431692296405 11.9426568901172132   T   T   T
  5.4794741843824486  6.3252724965613663 11.9383620809832127   T   T   T
  8.2153777709042615  6.2985285461756799 11.9828140087082087   T   T   T
 10.9502300874483023  6.3219498346389713 11.9491840376696263   T   T   T
  4.1054854941370378  8.6995024711679196 11.9430109029824418   T   T   T
  6.8517397344524245  8.6896433372352355 11.9406603510587068   T   T   T
  9.5858677413807332  8.6920375729265071 11.9477209762580312   T   T   T
 12.3221551692608529  8.6979537926015329 11.9484538270838989   T   T   T
  0.0038593141677745 -0.0015695134334756 14.1491960390024900   T   T   T
  2.7365530777621956  0.0025222534537701 14.1540208246241725   T   T   T
  5.4709421646802356 -0.0129699621117271 14.1587196881154291   T   T   T
  8.2197926999742528 -0.0157887376120201 14.1530503406107435   T   T   T
  1.3764563480598795  2.3672355407416541 14.1497028735339327   T   T   T
  4.0903456078502520  2.3729918256747502 14.1514320098082447   T   T   T
  6.8486337664780077  2.3758148643458923 14.2298112134588113   T   T   T
  9.6335156135198208  2.3414400113849765 14.1300252280301635   T   T   T
  2.7292671994551343  4.7404013738381865 14.1505034598389141   T   T   T
  5.4211756030648761  4.7714591345115140 14.1299221638678265   T   T   T
  8.2092248428307126  4.7399002050989791 14.2895056187705816   T   T   T
 10.9698940958120978  4.7477104597142752 14.1523417489860712   T   T   T
  4.1022971859947273  7.1240251044232847 14.1510238568002062   T   T   T
  6.8334237572930787  7.1304221933223033 14.1522101635352193   T   T   T
  9.5909878603038532  7.1217392569713418 14.1587253779865829   T   T   T
 12.3229109578844067  7.1139182374990160 14.1565855883898006   T   T   T
  7.8667281873035764  4.1305420132093573 16.2154838028181310   T   T   T
  7.1953509328812162  2.9683211545600159 16.2702038122580426   T   T   T
  8.1653000787205610  4.6625896372829301 17.2702506582181741   T   T   T
