Pt  N  O 
 1.0000000000000000
    11.2211673782643580    0.0000000000000000    0.0000000000000000
     5.6105836891321790    9.7178160096941610    0.0000000000000000
     0.0000000000000000    0.0000000000000000   21.8715335987779369
 Pt  N   O  
  64   1   2
Selective dynamics
Cartesian
  0.0000000000000000  0.0000000000000000  7.4999999999999991   F   F   F
  2.8052918445660895  0.0000000000000000  7.4999999999999991   F   F   F
  5.6105836891321790  0.0000000000000000  7.4999999999999991   F   F   F
  8.4158755336982694  0.0000000000000000  7.4999999999999991   F   F   F
  1.4026459222830447  2.4294540024235403  7.4999999999999991   F   F   F
  4.2079377668491347  2.4294540024235403  7.4999999999999991   F   F   F
  7.0132296114152233  2.4294540024235403  7.4999999999999991   F   F   F
  9.8185214559813137  2.4294540024235403  7.4999999999999991   F   F   F
  2.8052918445660895  4.8589080048470805  7.4999999999999991   F   F   F
  5.6105836891321790  4.8589080048470805  7.4999999999999991   F   F   F
  8.4158755336982694  4.8589080048470805  7.4999999999999991   F   F   F
 11.2211673782643580  4.8589080048470805  7.4999999999999991   F   F   F
  4.2079377668491347  7.2883620072706208  7.4999999999999991   F   F   F
  7.0132296114152242  7.2883620072706208  7.4999999999999991   F   F   F
  9.8185214559813137  7.2883620072706208  7.4999999999999991   F   F   F
 12.6238133005474040  7.2883620072706208  7.4999999999999991   F   F   F
  1.4026459222830447  0.8098180008078467  9.7905111995926450   F   F   F
  4.2079377668491338  0.8098180008078467  9.7905111995926450   F   F   F
  7.0132296114152242  0.8098180008078467  9.7905111995926450   F   F   F
  9.8185214559813137  0.8098180008078467  9.7905111995926450   F   F   F
  2.8052918445660895  3.2392720032313869  9.7905111995926450   F   F   F
  5.6105836891321790  3.2392720032313869  9.7905111995926450   F   F   F
  8.4158755336982694  3.2392720032313869  9.7905111995926450   F   F   F
 11.2211673782643580  3.2392720032313869  9.7905111995926450   F   F   F
  4.2079377668491347  5.6687260056549276  9.7905111995926450   F   F   F
  7.0132296114152233  5.6687260056549276  9.7905111995926450   F   F   F
  9.8185214559813137  5.6687260056549276  9.7905111995926450   F   F   F
 12.6238133005474040  5.6687260056549276  9.7905111995926450   F   F   F
  5.6105836891321790  8.0981800080784687  9.7905111995926450   F   F   F
  8.4158755336982694  8.0981800080784687  9.7905111995926450   F   F   F
 11.2211673782643580  8.0981800080784687  9.7905111995926450   F   F   F
 14.0264592228304483  8.0981800080784687  9.7905111995926450   F   F   F
 -0.0103010547515676  1.6167793011883469 12.0552781032587220   T   T   T
  2.7987490730465794  1.6098440420172040 12.0755573941679568   T   T   T
  5.6274417264401135  1.6453851988056134 12.1612214021872447   T   T   T
  8.3908679376258917  1.6242518206461356 12.0930251760114409   T   T   T
  1.3805269973626753  4.0455908756269769 12.0745175858977625   T   T   T
  4.1788838776143322  4.0454015678744977 12.0685904342711119   T   T   T
  6.9966321596074419  4.0545546212322998 12.0939586263805818   T   T   T
  9.7894291304217340  4.0576844457764967 12.1071922426750032   T   T   T
  2.7810547503911627  6.4820740753791268 12.0797756155885150   T   T   T
  5.5892224426037567  6.4909922377190341 12.0687277283247898   T   T   T
  8.3916612473262759  6.4291484914110200 12.1784399253096201   T   T   T
 11.1971140021231026  6.4848351602827545 12.0830884603451629   T   T   T
  4.1922569911264231  8.9132048146839384 12.0757725239910201   T   T   T
  7.0095102518920269  8.8992585984285846 12.0751761757879006   T   T   T
  9.7977885962377513  8.9033695741027401 12.0788395908233124   T   T   T
 12.5961534490489431  8.9112969646752997 12.0831808554889495   T   T   T
 -0.0433101195787487  0.0019322239166341 14.4087431112026856   T   T   T
  2.7548745371155534  0.0053374667142666 14.4289228952162905   T   T   T
  5.5440215241139521 -0.0183024667876077 14.4348923828556845   T   T   T
  8.3677765803475470 -0.0055708204235243 14.3969981317661908   T   T   T
  1.3624591866169613  2.4315383985918353 14.4094172003660930   T   T   T
  4.1117217354356175  2.4343573320848453 14.4263855955290605   T   T   T
  6.9034006386199467  2.4256379181984959 14.4883022413239040   T   T   T
  9.8293906366700092  2.3998792165958993 14.3489190224103318   T   T   T
  2.7433921277390345  4.8734629859456460 14.4144862775035172   T   T   T
  5.5026003827516714  4.8930763054151853 14.3536332373484576   T   T   T
  8.3600072362217741  4.8981828640843528 14.5555968949891650   T   T   T
 11.1956370236270750  4.8686342523324786 14.3999682563688634   T   T   T
  4.1458808688777191  7.3027702699143058 14.4128812062425506   T   T   T
  6.9428829537341388  7.3327560954193549 14.4212297729535450   T   T   T
  9.7805674794774795  7.3204565102788255 14.4362925008387304   T   T   T
 12.5733271303326184  7.2963103256195581 14.4224707042633735   T   T   T
  8.0511525124131449  4.2301237751307843 16.4500401218969579   T   T   T
  7.3877668378277770  3.0953522483965488 16.5212066582475536   T   T   T
  8.3963294854638004  4.7841731356655277 17.4790145637599572   T   T   T
