Pd  N  O 
 1.0000000000000000
    11.1449118996936107    0.0000000000000000    0.0000000000000000
     5.5724559498468054    9.6517768280741532    0.0000000000000000
     0.0000000000000000    0.0000000000000000   21.8248368456304220
 Pd  N   O  
  64   1   2
Selective dynamics
Cartesian
  0.0000000000000000  0.0000000000000000  7.5000000000000000   F   F   F
  2.7862279749234027  0.0000000000000000  7.5000000000000000   F   F   F
  5.5724559498468054  0.0000000000000000  7.5000000000000000   F   F   F
  8.3586839247702081  0.0000000000000000  7.5000000000000000   F   F   F
  1.3931139874617013  2.4129442070185383  7.5000000000000000   F   F   F
  4.1793419623851040  2.4129442070185383  7.5000000000000000   F   F   F
  6.9655699373085067  2.4129442070185383  7.5000000000000000   F   F   F
  9.7517979122319094  2.4129442070185383  7.5000000000000000   F   F   F
  2.7862279749234027  4.8258884140370766  7.5000000000000000   F   F   F
  5.5724559498468054  4.8258884140370766  7.5000000000000000   F   F   F
  8.3586839247702081  4.8258884140370766  7.5000000000000000   F   F   F
 11.1449118996936107  4.8258884140370766  7.5000000000000000   F   F   F
  4.1793419623851040  7.2388326210556144  7.5000000000000000   F   F   F
  6.9655699373085067  7.2388326210556144  7.5000000000000000   F   F   F
  9.7517979122319094  7.2388326210556144  7.5000000000000000   F   F   F
 12.5380258871553121  7.2388326210556144  7.5000000000000000   F   F   F
  1.3931139874617013  0.8043147356728461  9.7749456152101395   F   F   F
  4.1793419623851040  0.8043147356728461  9.7749456152101395   F   F   F
  6.9655699373085067  0.8043147356728461  9.7749456152101395   F   F   F
  9.7517979122319094  0.8043147356728461  9.7749456152101395   F   F   F
  2.7862279749234027  3.2172589426913842  9.7749456152101395   F   F   F
  5.5724559498468054  3.2172589426913842  9.7749456152101395   F   F   F
  8.3586839247702081  3.2172589426913842  9.7749456152101395   F   F   F
 11.1449118996936107  3.2172589426913842  9.7749456152101395   F   F   F
  4.1793419623851040  5.6302031497099234  9.7749456152101395   F   F   F
  6.9655699373085067  5.6302031497099234  9.7749456152101395   F   F   F
  9.7517979122319094  5.6302031497099234  9.7749456152101395   F   F   F
 12.5380258871553121  5.6302031497099234  9.7749456152101395   F   F   F
  5.5724559498468054  8.0431473567284613  9.7749456152101395   F   F   F
  8.3586839247702081  8.0431473567284613  9.7749456152101395   F   F   F
 11.1449118996936107  8.0431473567284613  9.7749456152101395   F   F   F
 13.9311398746170134  8.0431473567284613  9.7749456152101395   F   F   F
 -0.0149603931422879  1.6075567428588493 12.0564506857176568   T   T   T
  2.7783779153442953  1.6013903855642755 12.0673764183654892   T   T   T
  5.5775189899991187  1.6163512147100143 12.1240828448589895   T   T   T
  8.3374213902148409  1.6094604099445653 12.0869376504805324   T   T   T
  1.3754609398330322  4.0174276256393053 12.0664282849353377   T   T   T
  4.1603682735487082  4.0156219088308465 12.0608410412921039   T   T   T
  6.9518457349526583  4.0208194680853300 12.0847489260043002   T   T   T
  9.7302640864233307  4.0238047015622023 12.1008708908226907   T   T   T
  2.7709839939731604  6.4324673404056343 12.0658977100301499   T   T   T
  5.5596287921301082  6.4391797080868098 12.0614582488046107   T   T   T
  8.3437670087461093  6.4055112555831517 12.1394484318026326   T   T   T
 11.1277393093520640  6.4333139754111084 12.0746775752694759   T   T   T
  4.1653275041195803  8.8482772722249816 12.0656017039212351   T   T   T
  6.9586411332222395  8.8404129102450764 12.0687216551718457   T   T   T
  9.7419368757560001  8.8393487399040875 12.0756129624150841   T   T   T
 12.5210063021387672  8.8440167350144794 12.0708112817446374   T   T   T
 -0.0266893567249636 -0.0063307827915476 14.3846511650252236   T   T   T
  2.7578626622556270 -0.0046635415937966 14.3957355537655900   T   T   T
  5.5342872370106235 -0.0142627729912401 14.4060714615494145   T   T   T
  8.3314033787855273 -0.0158489290650919 14.3885615836161378   T   T   T
  1.3678794913713435  2.4071462753991857 14.3860733290028211   T   T   T
  4.1211377416056054  2.4058557883180849 14.3961485510766796   T   T   T
  6.9112898593265744  2.4084656975499539 14.4678829194278471   T   T   T
  9.7655725823191624  2.3813902237434079 14.3643966854922809   T   T   T
  2.7480909921957393  4.8254327577210043 14.3860247900965188   T   T   T
  5.4962458278165620  4.8435780464215554 14.3464865648531710   T   T   T
  8.3245191798744198  4.8380392689667060 14.5126716912889471   T   T   T
 11.1346831675286619  4.8234102585009762 14.3941421250899459   T   T   T
  4.1412365002737745  7.2403097108239365 14.3882605445729546   T   T   T
  6.9219942764101194  7.2654185506483486 14.3978534612370819   T   T   T
  9.7258145668894223  7.2474654503049729 14.4149026435977223   T   T   T
 12.5044954653629006  7.2368251437308144 14.3947266851128646   T   T   T
  7.9851858032763436  4.2597893500469226 16.4294759125917835   T   T   T
  7.3337574793532863  3.1478733228956965 16.5467985856680002   T   T   T
  8.3423223461670908  4.8855664477909242 17.4207403712007149   T   T   T
