Au  N  O 
 1.0000000000000000
    11.7602134546722201    0.0000000000000000    0.0000000000000000
     5.8801067273361101   10.1846436056736955    0.0000000000000000
     0.0000000000000000    0.0000000000000000   22.2016305575400814
 Au  N   O  
  64   1   2
Selective dynamics
Cartesian
  0.0000000000000000  0.0000000000000000  7.5000000000000000   F   F   F
  2.9400533636680550  0.0000000000000000  7.5000000000000000   F   F   F
  5.8801067273361101  0.0000000000000000  7.5000000000000000   F   F   F
  8.8201600910041655  0.0000000000000000  7.5000000000000000   F   F   F
  1.4700266818340275  2.5461609014184239  7.5000000000000000   F   F   F
  4.4100800455020828  2.5461609014184239  7.5000000000000000   F   F   F
  7.3501334091701374  2.5461609014184239  7.5000000000000000   F   F   F
 10.2901867728381937  2.5461609014184239  7.5000000000000000   F   F   F
  2.9400533636680550  5.0923218028368478  7.5000000000000000   F   F   F
  5.8801067273361101  5.0923218028368478  7.5000000000000000   F   F   F
  8.8201600910041655  5.0923218028368478  7.5000000000000000   F   F   F
 11.7602134546722201  5.0923218028368478  7.5000000000000000   F   F   F
  4.4100800455020828  7.6384827042552716  7.5000000000000000   F   F   F
  7.3501334091701374  7.6384827042552716  7.5000000000000000   F   F   F
 10.2901867728381937  7.6384827042552716  7.5000000000000000   F   F   F
 13.2302401365062483  7.6384827042552716  7.5000000000000000   F   F   F
  1.4700266818340275  0.8487203004728079  9.9005435191800277   F   F   F
  4.4100800455020828  0.8487203004728079  9.9005435191800277   F   F   F
  7.3501334091701382  0.8487203004728079  9.9005435191800277   F   F   F
 10.2901867728381937  0.8487203004728079  9.9005435191800277   F   F   F
  2.9400533636680550  3.3948812018912315  9.9005435191800277   F   F   F
  5.8801067273361101  3.3948812018912315  9.9005435191800277   F   F   F
  8.8201600910041655  3.3948812018912315  9.9005435191800277   F   F   F
 11.7602134546722219  3.3948812018912315  9.9005435191800277   F   F   F
  4.4100800455020828  5.9410421033096563  9.9005435191800277   F   F   F
  7.3501334091701374  5.9410421033096563  9.9005435191800277   F   F   F
 10.2901867728381937  5.9410421033096563  9.9005435191800277   F   F   F
 13.2302401365062483  5.9410421033096563  9.9005435191800277   F   F   F
  5.8801067273361109  8.4872030047280802  9.9005435191800277   F   F   F
  8.8201600910041655  8.4872030047280802  9.9005435191800277   F   F   F
 11.7602134546722219  8.4872030047280802  9.9005435191800277   F   F   F
 14.7002668183402765  8.4872030047280802  9.9005435191800277   F   F   F
  0.0002890266558669  1.6955447097075638 12.2968547818496141   T   T   T
  2.9415022344471953  1.6894436271355597 12.3063631920362297   T   T   T
  5.8951897220099232  1.7113224081049856 12.3494159140098017   T   T   T
  8.8075633200752694  1.7053694981701162 12.3308198462962864   T   T   T
  1.4679948973431003  4.2386740948196762 12.3066725863944626   T   T   T
  4.4006789585074770  4.2420389614023755 12.2991371609136788   T   T   T
  7.3496088052245492  4.2446890038301772 12.3278910202052820   T   T   T
 10.2787060243503383  4.2477771034085672 12.3313898723314388   T   T   T
  2.9349084679797235  6.7945066646059225 12.3137658548981754   T   T   T
  5.8789658639681486  6.8000338985447071 12.3002293790245609   T   T   T
  8.8187363988019651  6.7672281464462536 12.3514143022443150   T   T   T
 11.7608364379076509  6.7934137375347747 12.3097487934547356   T   T   T
  4.4106237396987105  9.3411995224228157 12.3082329053025852   T   T   T
  7.3554850594370622  9.3357113921595989 12.3073194216530002   T   T   T
 10.2859950647557579  9.3358535778019185 12.3015887516971212   T   T   T
 13.2243770797288622  9.3359654195517869 12.3105019549634367   T   T   T
  0.0090407421766299 -0.0051722026648280 14.7897803883169860   T   T   T
  2.9423167996900461 -0.0026921478850100 14.7886625434254633   T   T   T
  5.8735240335670431 -0.0082360018082717 14.7692864772397350   T   T   T
  8.8244681572000978 -0.0219172374924118 14.7621400207777889   T   T   T
  1.4774801672424245  2.5398054370389431 14.7861545505738849   T   T   T
  4.3835349124990293  2.5502003321679982 14.7656894420801326   T   T   T
  7.3589018715760828  2.5555316817888620 14.8128220665270938   T   T   T
 10.3382161914181321  2.5169871113758595 14.7449486847787199   T   T   T
  2.9269811810001429  5.0978493877536035 14.7855967686437406   T   T   T
  5.8272711849735872  5.1240939931199074 14.7228443703346681   T   T   T
  8.8221487075552822  5.0769082013177913 14.8152830767871162   T   T   T
 11.7837818210559568  5.0977272474968540 14.7617407142798989   T   T   T
  4.4004308460899777  7.6493625397878331 14.7890277074614040   T   T   T
  7.3365709799638799  7.6576637443571078 14.7692842981023009   T   T   T
 10.2972439197839059  7.6448927288662984 14.7707843901299043   T   T   T
 13.2300515466628319  7.6397277722041457 14.7896175415966695   T   T   T
  8.0572581135965056  3.8204148268216356 17.8573047844119159   T   T   T
  8.5868456519195195  4.7880805534414117 17.2578469469905755   T   T   T
  7.5334494307890285  2.8524292576800039 17.2530340516755309   T   T   T
