Cu  N  O 
 1.0000000000000000
    10.2829783810003317    0.0000000000000000    0.0000000000000000
     5.1414891905001658    8.9053205045124635    0.0000000000000000
     0.0000000000000000    0.0000000000000000   21.2970125173803737
 Cu  N   O  
  64   1   2
Selective dynamics
Cartesian
  0.0000000000000000  0.0000000000000000  7.5000000000000009   F   F   F
  2.5707445952500829  0.0000000000000000  7.5000000000000009   F   F   F
  5.1414891905001658  0.0000000000000000  7.5000000000000009   F   F   F
  7.7122337857502483  0.0000000000000000  7.5000000000000009   F   F   F
  1.2853722976250415  2.2263301261281159  7.5000000000000009   F   F   F
  3.8561168928751242  2.2263301261281159  7.5000000000000009   F   F   F
  6.4268614881252075  2.2263301261281159  7.5000000000000009   F   F   F
  8.9976060833752900  2.2263301261281159  7.5000000000000009   F   F   F
  2.5707445952500829  4.4526602522562317  7.5000000000000009   F   F   F
  5.1414891905001658  4.4526602522562317  7.5000000000000009   F   F   F
  7.7122337857502483  4.4526602522562317  7.5000000000000009   F   F   F
 10.2829783810003317  4.4526602522562317  7.5000000000000009   F   F   F
  3.8561168928751242  6.6789903783843476  7.5000000000000009   F   F   F
  6.4268614881252075  6.6789903783843476  7.5000000000000009   F   F   F
  8.9976060833752900  6.6789903783843476  7.5000000000000009   F   F   F
 11.5683506786253734  6.6789903783843476  7.5000000000000009   F   F   F
  1.2853722976250415  0.7421100420427053  9.5990041724601252   F   F   F
  3.8561168928751242  0.7421100420427053  9.5990041724601252   F   F   F
  6.4268614881252075  0.7421100420427053  9.5990041724601252   F   F   F
  8.9976060833752900  0.7421100420427053  9.5990041724601252   F   F   F
  2.5707445952500829  2.9684401681708210  9.5990041724601252   F   F   F
  5.1414891905001658  2.9684401681708210  9.5990041724601252   F   F   F
  7.7122337857502492  2.9684401681708210  9.5990041724601252   F   F   F
 10.2829783810003317  2.9684401681708210  9.5990041724601252   F   F   F
  3.8561168928751246  5.1947702942989373  9.5990041724601252   F   F   F
  6.4268614881252075  5.1947702942989373  9.5990041724601252   F   F   F
  8.9976060833752900  5.1947702942989373  9.5990041724601252   F   F   F
 11.5683506786253734  5.1947702942989373  9.5990041724601252   F   F   F
  5.1414891905001658  7.4211004204270532  9.5990041724601252   F   F   F
  7.7122337857502483  7.4211004204270532  9.5990041724601252   F   F   F
 10.2829783810003317  7.4211004204270532  9.5990041724601252   F   F   F
 12.8537229762504150  7.4211004204270532  9.5990041724601252   F   F   F
 -0.0035672747739178  1.4841248280410302 11.7006720743902228   T   T   T
  2.5748057577407519  1.4810012057170878 11.7033416980795533   T   T   T
  5.1627719866542616  1.4999880204900355 11.7442757441164609   T   T   T
  7.6949023555830562  1.4945123126662556 11.7285809750077927   T   T   T
  1.2832901301642778  3.7068952276505276 11.7039931263544315   T   T   T
  3.8571931276289879  3.7095721642983279 11.6988134163144899   T   T   T
  6.4410854484807434  3.7014173268195809 11.7531161980945633   T   T   T
  8.9783383407481629  3.7188383003711456 11.7303526441111536   T   T   T
  2.5700702825743411  5.9381784989377193 11.7116783486007385   T   T   T
  5.1436865616314842  5.9340750044008805 11.7000363642938687   T   T   T
  7.7103141313616010  5.9104720154514681 11.7418308605973909   T   T   T
 10.2835046591738912  5.9352828917170575 11.7054813169095979   T   T   T
  3.8548694896559828  8.1646446909845682 11.7050260317502914   T   T   T
  6.4277193331675813  8.1602205190137944 11.7030640481715462   T   T   T
  8.9958735155449805  8.1614533449678675 11.7029002334451420   T   T   T
 11.5646739620239529  8.1645489249355645 11.7052039125252403   T   T   T
  0.0016348645646891 -0.0014711174840815 13.8208845582304729   T   T   T
  2.5683389882534953  0.0006738857216210 13.8194251000984956   T   T   T
  5.1326775793766295 -0.0135853958259934 13.8118389726890509   T   T   T
  7.7151972122081904 -0.0221049039811411 13.8018866226816055   T   T   T
  1.2886421073702325  2.2224587870353294 13.8177068238577903   T   T   T
  3.8397358854350210  2.2286208396506928 13.8082337595123228   T   T   T
  6.4294487429132650  2.2169942499933497 13.9716044676911526   T   T   T
  9.0230102778194663  2.2119685399975788 13.7872735545110867   T   T   T
  2.5619986066803495  4.4538159165235358 13.8210791823081180   T   T   T
  5.1087779138439915  4.4667559379312882 13.7840645860633533   T   T   T
  7.7093612909470766  4.4579750812338181 13.9722816438693211   T   T   T
 10.2943173133422405  4.4552168577192690 13.8061771067008596   T   T   T
  3.8527244835238701  6.6810479141055312 13.8251163632845682   T   T   T
  6.4145419096070864  6.6969449910963164 13.8052189155174574   T   T   T
  9.0058994438482145  6.6884683655456341 13.8110448806284030   T   T   T
 11.5690071423945433  6.6766448231500535 13.8255737330288948   T   T   T
  7.0640538099824379  3.3397615978962292 16.7093221488761827   T   T   T
  7.5472480083182543  4.3226107320440716 16.0655362546682952   T   T   T
  6.5822976326293290  2.3565327391066386 16.0655593211115573   T   T   T
