Pt  N  O 
 1.0000000000000000
     8.4158755336982694    0.0000000000000000    0.0000000000000000
     0.0000000000000000    8.4158755336982694    0.0000000000000000
     0.0000000000000000    0.0000000000000000   24.9182044325000014
 Pt  N   O  
  54   1   1
Selective dynamics
Cartesian
  1.4026459222830447  1.4026459222830447  7.5000000000000000   F   F   F
  4.2079377668491347  1.4026459222830447  7.5000000000000000   F   F   F
  7.0132296114152233  1.4026459222830447  7.5000000000000000   F   F   F
  1.4026459222830447  4.2079377668491347  7.5000000000000000   F   F   F
  4.2079377668491347  4.2079377668491347  7.5000000000000000   F   F   F
  7.0132296114152233  4.2079377668491347  7.5000000000000000   F   F   F
  1.4026459222830447  7.0132296114152233  7.5000000000000000   F   F   F
  4.2079377668491347  7.0132296114152233  7.5000000000000000   F   F   F
  7.0132296114152233  7.0132296114152233  7.5000000000000000   F   F   F
  0.0000000000000000  0.0000000000000000  9.4836408864999999   F   F   F
  2.8052918445660895  0.0000000000000000  9.4836408864999999   F   F   F
  5.6105836891321790  0.0000000000000000  9.4836408864999999   F   F   F
  0.0000000000000000  2.8052918445660895  9.4836408864999999   F   F   F
  2.8052918445660895  2.8052918445660895  9.4836408864999999   F   F   F
  5.6105836891321790  2.8052918445660895  9.4836408864999999   F   F   F
  0.0000000000000000  5.6105836891321790  9.4836408864999999   F   F   F
  2.8052918445660895  5.6105836891321790  9.4836408864999999   F   F   F
  5.6105836891321790  5.6105836891321790  9.4836408864999999   F   F   F
  1.4026459222830447  1.4026459222830447 11.4672817729999998   F   F   F
  4.2079377668491347  1.4026459222830447 11.4672817729999998   F   F   F
  7.0132296114152233  1.4026459222830447 11.4672817729999998   F   F   F
  1.4026459222830447  4.2079377668491347 11.4672817729999998   F   F   F
  4.2079377668491347  4.2079377668491347 11.4672817729999998   F   F   F
  7.0132296114152233  4.2079377668491347 11.4672817729999998   F   F   F
  1.4026459222830447  7.0132296114152233 11.4672817729999998   F   F   F
  4.2079377668491347  7.0132296114152233 11.4672817729999998   F   F   F
  7.0132296114152233  7.0132296114152233 11.4672817729999998   F   F   F
  0.0000000000000000  0.0000000000000000 13.4509226595000015   F   F   F
  2.8052918445660895  0.0000000000000000 13.4509226595000015   F   F   F
  5.6105836891321790  0.0000000000000000 13.4509226595000015   F   F   F
  0.0000000000000000  2.8052918445660895 13.4509226595000015   F   F   F
  2.8052918445660895  2.8052918445660895 13.4509226595000015   F   F   F
  5.6105836891321790  2.8052918445660895 13.4509226595000015   F   F   F
  0.0000000000000000  5.6105836891321790 13.4509226595000015   F   F   F
  2.8052918445660895  5.6105836891321790 13.4509226595000015   F   F   F
  5.6105836891321790  5.6105836891321790 13.4509226595000015   F   F   F
  1.4259075601356921  1.4173771540291851 15.4842636382137755   T   T   T
  4.1846761289964860  1.4173771540291851 15.4842636382137755   T   T   T
  7.0132296114152233  1.3965909848063056 15.4161233707141392   T   T   T
  1.4250994797663450  4.2079377668491347 15.4823464803551971   T   T   T
  4.1854842093658364  4.2079377668491347 15.4823464803551971   T   T   T
  7.0132296114152233  4.2079377668491347 15.4252356262026211   T   T   T
  1.4259075601356921  6.9984983796690816 15.4842636382137755   T   T   T
  4.1846761289964860  6.9984983796690816 15.4842636382137755   T   T   T
  7.0132296114152233  7.0192845488919637 15.4161233707141392   T   T   T
 -0.0238968727358686  0.0000000000000000 17.3957433694072208   T   T   T
  2.8052918445660895  0.0000000000000000 17.4512062107156325   T   T   T
  5.6344805618680489  0.0000000000000000 17.3957433694072208   T   T   T
 -0.0340620075511735  2.7982971087230855 17.3874364757816444   T   T   T
  2.8052918445660895  2.7229120214664202 17.6148219617833419   T   T   T
  5.6446456966833560  2.7982971087230855 17.3874364757816444   T   T   T
 -0.0340620075511735  5.6175784249751803 17.3874364757816444   T   T   T
  2.8052918445660895  5.6929635122318460 17.6148219617833419   T   T   T
  5.6446456966833560  5.6175784249751803 17.3874364757816444   T   T   T
  2.8052918445660895  4.2079377668491347 18.9243118399308763   T   T   T
  2.8052918445660895  4.2079377668491347 20.1278742906175161   T   T   T
