Ag  N  O 
 1.0000000000000000
     8.7962652734892650    0.0000000000000000    0.0000000000000000
     0.0000000000000000    8.7962652734892650    0.0000000000000000
     0.0000000000000000    0.0000000000000000   25.3664980399999997
 Ag  N   O  
  54   1   1
Selective dynamics
Cartesian
  1.4660442122482107  1.4660442122482107  7.5000000000000000   F   F   F
  4.3981326367446325  1.4660442122482107  7.5000000000000000   F   F   F
  7.3302210612410530  1.4660442122482107  7.5000000000000000   F   F   F
  1.4660442122482107  4.3981326367446325  7.5000000000000000   F   F   F
  4.3981326367446325  4.3981326367446325  7.5000000000000000   F   F   F
  7.3302210612410530  4.3981326367446325  7.5000000000000000   F   F   F
  1.4660442122482107  7.3302210612410530  7.5000000000000000   F   F   F
  4.3981326367446325  7.3302210612410530  7.5000000000000000   F   F   F
  7.3302210612410530  7.3302210612410530  7.5000000000000000   F   F   F
  0.0000000000000000  0.0000000000000000  9.5732996079999992   F   F   F
  2.9320884244964214  0.0000000000000000  9.5732996079999992   F   F   F
  5.8641768489928427  0.0000000000000000  9.5732996079999992   F   F   F
  0.0000000000000000  2.9320884244964214  9.5732996079999992   F   F   F
  2.9320884244964214  2.9320884244964214  9.5732996079999992   F   F   F
  5.8641768489928427  2.9320884244964214  9.5732996079999992   F   F   F
  0.0000000000000000  5.8641768489928427  9.5732996079999992   F   F   F
  2.9320884244964214  5.8641768489928427  9.5732996079999992   F   F   F
  5.8641768489928427  5.8641768489928427  9.5732996079999992   F   F   F
  1.4660442122482107  1.4660442122482107 11.6465992160000003   F   F   F
  4.3981326367446325  1.4660442122482107 11.6465992160000003   F   F   F
  7.3302210612410530  1.4660442122482107 11.6465992160000003   F   F   F
  1.4660442122482107  4.3981326367446325 11.6465992160000003   F   F   F
  4.3981326367446325  4.3981326367446325 11.6465992160000003   F   F   F
  7.3302210612410530  4.3981326367446325 11.6465992160000003   F   F   F
  1.4660442122482107  7.3302210612410530 11.6465992160000003   F   F   F
  4.3981326367446325  7.3302210612410530 11.6465992160000003   F   F   F
  7.3302210612410530  7.3302210612410530 11.6465992160000003   F   F   F
  0.0000000000000000  0.0000000000000000 13.7198988240000013   F   F   F
  2.9320884244964214  0.0000000000000000 13.7198988240000013   F   F   F
  5.8641768489928427  0.0000000000000000 13.7198988240000013   F   F   F
  0.0000000000000000  2.9320884244964214 13.7198988240000013   F   F   F
  2.9320884244964214  2.9320884244964214 13.7198988240000013   F   F   F
  5.8641768489928427  2.9320884244964214 13.7198988240000013   F   F   F
  0.0000000000000000  5.8641768489928427 13.7198988240000013   F   F   F
  2.9320884244964214  5.8641768489928427 13.7198988240000013   F   F   F
  5.8641768489928427  5.8641768489928427 13.7198988240000013   F   F   F
  1.4682267780150884  1.4682267780150884 15.8772488850856952   T   T   T
  4.3981326367446325  1.4793414225958295 15.8920360992254146   T   T   T
  7.3280384954741749  1.4682267780150884 15.8772488850856952   T   T   T
  1.4793414225958295  4.3981326367446325 15.8920360992254146   T   T   T
  4.3981326367446325  4.3981326367446325 15.8416840811881965   T   T   T
  7.3169238508934349  4.3981326367446325 15.8920360992254146   T   T   T
  1.4682267780150884  7.3280384954741775 15.8772488850856952   T   T   T
  4.3981326367446325  7.3169238508934349 15.8920360992254146   T   T   T
  7.3280384954741749  7.3280384954741775 15.8772488850856952   T   T   T
  0.0000000000000000  0.0000000000000000 17.9877489946269975   T   T   T
  2.9276311790580736  0.0000000000000000 17.9843014752966717   T   T   T
  5.8686340944311892  0.0000000000000000 17.9843014752966717   T   T   T
  0.0000000000000000  2.9276311790580736 17.9843014752966717   T   T   T
  2.9054097265966359  2.9054097265966359 18.0231695186755942   T   T   T
  5.8908555468926256  2.9054097265966354 18.0231695186755942   T   T   T
  0.0000000000000000  5.8686340944311892 17.9843014752966717   T   T   T
  2.9054097265966359  5.8908555468926256 18.0231695186755942   T   T   T
  5.8908555468926274  5.8908555468926256 18.0231695186755942   T   T   T
  4.3981326367446325  4.3981326367446325 19.5036009002045070   T   T   T
  4.3981326367446325  4.3981326367446325 20.7133595973879530   T   T   T
