Ni  N  O 
 1.0000000000000000
     7.4637869660136236    0.0000000000000000    0.0000000000000000
     0.0000000000000000    7.4637869660136236    0.0000000000000000
     0.0000000000000000    0.0000000000000000   23.7961572950000004
 Ni  N   O  
  54   1   1
Selective dynamics
Cartesian
  1.2439644943356039  1.2439644943356039  7.5000000000000009   F   F   F
  3.7318934830068118  1.2439644943356039  7.5000000000000009   F   F   F
  6.2198224716780190  1.2439644943356039  7.5000000000000009   F   F   F
  1.2439644943356039  3.7318934830068118  7.5000000000000009   F   F   F
  3.7318934830068118  3.7318934830068118  7.5000000000000009   F   F   F
  6.2198224716780190  3.7318934830068118  7.5000000000000009   F   F   F
  1.2439644943356039  6.2198224716780190  7.5000000000000009   F   F   F
  3.7318934830068118  6.2198224716780190  7.5000000000000009   F   F   F
  6.2198224716780190  6.2198224716780190  7.5000000000000009   F   F   F
  0.0000000000000000  0.0000000000000000  9.2592314590000004   F   F   F
  2.4879289886712077  0.0000000000000000  9.2592314590000004   F   F   F
  4.9758579773424154  0.0000000000000000  9.2592314590000004   F   F   F
  0.0000000000000000  2.4879289886712077  9.2592314590000004   F   F   F
  2.4879289886712077  2.4879289886712077  9.2592314590000004   F   F   F
  4.9758579773424154  2.4879289886712077  9.2592314590000004   F   F   F
  0.0000000000000000  4.9758579773424154  9.2592314590000004   F   F   F
  2.4879289886712077  4.9758579773424154  9.2592314590000004   F   F   F
  4.9758579773424154  4.9758579773424154  9.2592314590000004   F   F   F
  1.2439644943356039  1.2439644943356039 11.0184629180000009   F   F   F
  3.7318934830068118  1.2439644943356039 11.0184629180000009   F   F   F
  6.2198224716780190  1.2439644943356039 11.0184629180000009   F   F   F
  1.2439644943356039  3.7318934830068118 11.0184629180000009   F   F   F
  3.7318934830068118  3.7318934830068118 11.0184629180000009   F   F   F
  6.2198224716780190  3.7318934830068118 11.0184629180000009   F   F   F
  1.2439644943356039  6.2198224716780190 11.0184629180000009   F   F   F
  3.7318934830068118  6.2198224716780190 11.0184629180000009   F   F   F
  6.2198224716780190  6.2198224716780190 11.0184629180000009   F   F   F
  0.0000000000000000  0.0000000000000000 12.7776943769999995   F   F   F
  2.4879289886712077  0.0000000000000000 12.7776943769999995   F   F   F
  4.9758579773424154  0.0000000000000000 12.7776943769999995   F   F   F
  0.0000000000000000  2.4879289886712077 12.7776943769999995   F   F   F
  2.4879289886712077  2.4879289886712077 12.7776943769999995   F   F   F
  4.9758579773424154  2.4879289886712077 12.7776943769999995   F   F   F
  0.0000000000000000  4.9758579773424154 12.7776943769999995   F   F   F
  2.4879289886712077  4.9758579773424154 12.7776943769999995   F   F   F
  4.9758579773424154  4.9758579773424154 12.7776943769999995   F   F   F
  1.2511558750276739  1.2511558750276739 14.5947205013886041   T   T   T
  3.7318934830068118  1.2434588651507228 14.5834652335859456   T   T   T
  6.2126310909859459  1.2511558750276739 14.5947205013886041   T   T   T
  1.2434588651507228  3.7318934830068118 14.5834652335859456   T   T   T
  3.7318934830068118  3.7318934830068118 14.5274836749575602   T   T   T
  6.2203281008629006  3.7318934830068118 14.5834652335859456   T   T   T
  1.2511558750276739  6.2126310909859459 14.5947205013886041   T   T   T
  3.7318934830068118  6.2203281008629006 14.5834652335859456   T   T   T
  6.2126310909859459  6.2126310909859459 14.5947205013886041   T   T   T
  0.0000000000000000  0.0000000000000000 16.3039165075339518   T   T   T
  2.4913658662588820  0.0000000000000000 16.3093586589313517   T   T   T
  4.9724210997547402  0.0000000000000000 16.3093586589313517   T   T   T
  0.0000000000000000  2.4913658662588820 16.3093586589313517   T   T   T
  2.5027560345624775  2.5027560345624775 16.3863450929611325   T   T   T
  4.9610309314511447  2.5027560345624775 16.3863450929611325   T   T   T
  0.0000000000000000  4.9724210997547402 16.3093586589313517   T   T   T
  2.5027560345624775  4.9610309314511447 16.3863450929611325   T   T   T
  4.9610309314511447  4.9610309314511447 16.3863450929611325   T   T   T
  3.7318934830068118  3.7318934830068118 17.3926962989270315   T   T   T
  3.7318934830068118  3.7318934830068118 18.6459886047935726   T   T   T
