Cu  N  O 
 1.0000000000000000
     7.7122337857502483    0.0000000000000000    0.0000000000000000
     0.0000000000000000    7.7122337857502483    0.0000000000000000
     0.0000000000000000    0.0000000000000000   24.0889546800000005
 Cu  N   O  
  54   1   1
Selective dynamics
Cartesian
  1.2853722976250412  1.2853722976250412  7.5000000000000000   F   F   F
  3.8561168928751237  1.2853722976250412  7.5000000000000000   F   F   F
  6.4268614881252066  1.2853722976250412  7.5000000000000000   F   F   F
  1.2853722976250412  3.8561168928751237  7.5000000000000000   F   F   F
  3.8561168928751237  3.8561168928751237  7.5000000000000000   F   F   F
  6.4268614881252066  3.8561168928751237  7.5000000000000000   F   F   F
  1.2853722976250412  6.4268614881252066  7.5000000000000000   F   F   F
  3.8561168928751237  6.4268614881252066  7.5000000000000000   F   F   F
  6.4268614881252066  6.4268614881252066  7.5000000000000000   F   F   F
  0.0000000000000000  0.0000000000000000  9.3177909359999997   F   F   F
  2.5707445952500825  0.0000000000000000  9.3177909359999997   F   F   F
  5.1414891905001650  0.0000000000000000  9.3177909359999997   F   F   F
  0.0000000000000000  2.5707445952500825  9.3177909359999997   F   F   F
  2.5707445952500825  2.5707445952500825  9.3177909359999997   F   F   F
  5.1414891905001650  2.5707445952500825  9.3177909359999997   F   F   F
  0.0000000000000000  5.1414891905001650  9.3177909359999997   F   F   F
  2.5707445952500825  5.1414891905001650  9.3177909359999997   F   F   F
  5.1414891905001650  5.1414891905001650  9.3177909359999997   F   F   F
  1.2853722976250412  1.2853722976250412 11.1355818719999995   F   F   F
  3.8561168928751237  1.2853722976250412 11.1355818719999995   F   F   F
  6.4268614881252066  1.2853722976250412 11.1355818719999995   F   F   F
  1.2853722976250412  3.8561168928751237 11.1355818719999995   F   F   F
  3.8561168928751237  3.8561168928751237 11.1355818719999995   F   F   F
  6.4268614881252066  3.8561168928751237 11.1355818719999995   F   F   F
  1.2853722976250412  6.4268614881252066 11.1355818719999995   F   F   F
  3.8561168928751237  6.4268614881252066 11.1355818719999995   F   F   F
  6.4268614881252066  6.4268614881252066 11.1355818719999995   F   F   F
  0.0000000000000000  0.0000000000000000 12.9533728080000010   F   F   F
  2.5707445952500825  0.0000000000000000 12.9533728080000010   F   F   F
  5.1414891905001650  0.0000000000000000 12.9533728080000010   F   F   F
  0.0000000000000000  2.5707445952500825 12.9533728080000010   F   F   F
  2.5707445952500825  2.5707445952500825 12.9533728080000010   F   F   F
  5.1414891905001650  2.5707445952500825 12.9533728080000010   F   F   F
  0.0000000000000000  5.1414891905001650 12.9533728080000010   F   F   F
  2.5707445952500825  5.1414891905001650 12.9533728080000010   F   F   F
  5.1414891905001650  5.1414891905001650 12.9533728080000010   F   F   F
  1.2924561853577481  1.2924561853577481 14.8461538658842649   T   T   T
  3.8561168928751237  1.2996958725771077 14.8446710774846533   T   T   T
  6.4197776003924991  1.2924561853577476 14.8461538658842649   T   T   T
  1.2996958725771077  3.8561168928751237 14.8446710774846533   T   T   T
  3.8561168928751237  3.8561168928751237 14.7406392132938002   T   T   T
  6.4125379131731410  3.8561168928751237 14.8446710774846533   T   T   T
  1.2924561853577476  6.4197776003924991 14.8461538658842649   T   T   T
  3.8561168928751237  6.4125379131731428 14.8446710774846533   T   T   T
  6.4197776003924991  6.4197776003924991 14.8461538658842649   T   T   T
  0.0000000000000000  0.0000000000000000 16.6552001121914124   T   T   T
  2.5680164069972915  0.0000000000000000 16.6452519077479337   T   T   T
  5.1442173787529564  0.0000000000000000 16.6452519077479337   T   T   T
  0.0000000000000000  2.5680164069972915 16.6452519077479337   T   T   T
  2.5656484833681308  2.5656484833681308 16.7071786288455932   T   T   T
  5.1465853023821158  2.5656484833681308 16.7071786288455932   T   T   T
  0.0000000000000000  5.1442173787529564 16.6452519077479337   T   T   T
  2.5656484833681321  5.1465853023821158 16.7071786288455932   T   T   T
  5.1465853023821158  5.1465853023821158 16.7071786288455932   T   T   T
  3.8561168928751237  3.8561168928751237 17.8387297157755000   T   T   T
  3.8561168928751237  3.8561168928751237 19.0830367546087736   T   T   T
