Au  N  O 
 1.0000000000000000
     8.8201600910041655    0.0000000000000000    0.0000000000000000
     0.0000000000000000    8.8201600910041655    0.0000000000000000
     0.0000000000000000    0.0000000000000000   25.3946583525000023
 Au  N   O  
  54   1   1
Selective dynamics
Cartesian
  1.4700266818340275  1.4700266818340275  7.5000000000000000   F   F   F
  4.4100800455020828  1.4700266818340275  7.5000000000000000   F   F   F
  7.3501334091701374  1.4700266818340275  7.5000000000000000   F   F   F
  1.4700266818340275  4.4100800455020828  7.5000000000000000   F   F   F
  4.4100800455020828  4.4100800455020828  7.5000000000000000   F   F   F
  7.3501334091701374  4.4100800455020828  7.5000000000000000   F   F   F
  1.4700266818340275  7.3501334091701374  7.5000000000000000   F   F   F
  4.4100800455020828  7.3501334091701374  7.5000000000000000   F   F   F
  7.3501334091701374  7.3501334091701374  7.5000000000000000   F   F   F
  0.0000000000000000  0.0000000000000000  9.5789316705000012   F   F   F
  2.9400533636680550  0.0000000000000000  9.5789316705000012   F   F   F
  5.8801067273361101  0.0000000000000000  9.5789316705000012   F   F   F
  0.0000000000000000  2.9400533636680550  9.5789316705000012   F   F   F
  2.9400533636680550  2.9400533636680550  9.5789316705000012   F   F   F
  5.8801067273361101  2.9400533636680550  9.5789316705000012   F   F   F
  0.0000000000000000  5.8801067273361101  9.5789316705000012   F   F   F
  2.9400533636680550  5.8801067273361101  9.5789316705000012   F   F   F
  5.8801067273361101  5.8801067273361101  9.5789316705000012   F   F   F
  1.4700266818340275  1.4700266818340275 11.6578633410000005   F   F   F
  4.4100800455020828  1.4700266818340275 11.6578633410000005   F   F   F
  7.3501334091701374  1.4700266818340275 11.6578633410000005   F   F   F
  1.4700266818340275  4.4100800455020828 11.6578633410000005   F   F   F
  4.4100800455020828  4.4100800455020828 11.6578633410000005   F   F   F
  7.3501334091701374  4.4100800455020828 11.6578633410000005   F   F   F
  1.4700266818340275  7.3501334091701374 11.6578633410000005   F   F   F
  4.4100800455020828  7.3501334091701374 11.6578633410000005   F   F   F
  7.3501334091701374  7.3501334091701374 11.6578633410000005   F   F   F
  0.0000000000000000  0.0000000000000000 13.7367950114999999   F   F   F
  2.9400533636680550  0.0000000000000000 13.7367950114999999   F   F   F
  5.8801067273361101  0.0000000000000000 13.7367950114999999   F   F   F
  0.0000000000000000  2.9400533636680550 13.7367950114999999   F   F   F
  2.9400533636680550  2.9400533636680550 13.7367950114999999   F   F   F
  5.8801067273361101  2.9400533636680550 13.7367950114999999   F   F   F
  0.0000000000000000  5.8801067273361101 13.7367950114999999   F   F   F
  2.9400533636680550  5.8801067273361101 13.7367950114999999   F   F   F
  5.8801067273361101  5.8801067273361101 13.7367950114999999   F   F   F
  1.4856973493956804  1.4899560515565102 15.8770962804874731   T   T   T
  4.3944093779404305  1.4899560515565102 15.8770962804874731   T   T   T
  7.3501334091701374  1.4575856815312713 15.8348620349468074   T   T   T
  1.5033504849165142  4.4100800455020828 15.8971582546651149   T   T   T
  4.3767562424195994  4.4100800455020828 15.8971582546651149   T   T   T
  7.3501334091701374  4.4100800455020828 15.8498128880804199   T   T   T
  1.4856973493956804  7.3302040394476533 15.8770962804874731   T   T   T
  4.3944093779404305  7.3302040394476533 15.8770962804874731   T   T   T
  7.3501334091701374  7.3625744094728933 15.8348620349468074   T   T   T
 -0.0162704783915537  0.0000000000000000 17.9672831649860250   T   T   T
  2.9400533636680550  0.0000000000000000 17.9668738672673918   T   T   T
  5.8963772057276609  0.0000000000000000 17.9672831649860250   T   T   T
 -0.0276376029549273  2.9299193699595993 17.9394281909675577   T   T   T
  2.9400533636680550  2.7452131012660002 18.1569265832026936   T   T   T
  5.9077443302910355  2.9299193699595993 17.9394281909675577   T   T   T
 -0.0276376029549273  5.8902407210445666 17.9394281909675577   T   T   T
  2.9400533636680550  6.0749469897381667 18.1569265832026936   T   T   T
  5.9077443302910355  5.8902407210445666 17.9394281909675577   T   T   T
  2.9400533636680550  4.4100800455020828 19.5792966755528290   T   T   T
  2.9400533636680550  4.4100800455020828 20.7751398971828678   T   T   T
