Rh  N  O 
 1.0000000000000000
     8.1252569843256168    0.0000000000000000    0.0000000000000000
     0.0000000000000000    8.1252569843256168    0.0000000000000000
     0.0000000000000000    0.0000000000000000   24.5757071875000008
 Rh  N   O  
  54   1   1
Selective dynamics
Cartesian
  1.3542094973876027  1.3542094973876027  7.5000000000000000   F   F   F
  4.0626284921628084  1.3542094973876027  7.5000000000000000   F   F   F
  6.7710474869380128  1.3542094973876027  7.5000000000000000   F   F   F
  1.3542094973876027  4.0626284921628084  7.5000000000000000   F   F   F
  4.0626284921628084  4.0626284921628084  7.5000000000000000   F   F   F
  6.7710474869380128  4.0626284921628084  7.5000000000000000   F   F   F
  1.3542094973876027  6.7710474869380128  7.5000000000000000   F   F   F
  4.0626284921628084  6.7710474869380128  7.5000000000000000   F   F   F
  6.7710474869380128  6.7710474869380128  7.5000000000000000   F   F   F
  0.0000000000000000  0.0000000000000000  9.4151414375000009   F   F   F
  2.7084189947752053  0.0000000000000000  9.4151414375000009   F   F   F
  5.4168379895504106  0.0000000000000000  9.4151414375000009   F   F   F
  0.0000000000000000  2.7084189947752053  9.4151414375000009   F   F   F
  2.7084189947752053  2.7084189947752053  9.4151414375000009   F   F   F
  5.4168379895504106  2.7084189947752053  9.4151414375000009   F   F   F
  0.0000000000000000  5.4168379895504106  9.4151414375000009   F   F   F
  2.7084189947752053  5.4168379895504106  9.4151414375000009   F   F   F
  5.4168379895504106  5.4168379895504106  9.4151414375000009   F   F   F
  1.3542094973876027  1.3542094973876027 11.3302828750000000   F   F   F
  4.0626284921628084  1.3542094973876027 11.3302828750000000   F   F   F
  6.7710474869380128  1.3542094973876027 11.3302828750000000   F   F   F
  1.3542094973876027  4.0626284921628084 11.3302828750000000   F   F   F
  4.0626284921628084  4.0626284921628084 11.3302828750000000   F   F   F
  6.7710474869380128  4.0626284921628084 11.3302828750000000   F   F   F
  1.3542094973876027  6.7710474869380128 11.3302828750000000   F   F   F
  4.0626284921628084  6.7710474869380128 11.3302828750000000   F   F   F
  6.7710474869380128  6.7710474869380128 11.3302828750000000   F   F   F
  0.0000000000000000  0.0000000000000000 13.2454243124999991   F   F   F
  2.7084189947752053  0.0000000000000000 13.2454243124999991   F   F   F
  5.4168379895504106  0.0000000000000000 13.2454243124999991   F   F   F
  0.0000000000000000  2.7084189947752053 13.2454243124999991   F   F   F
  2.7084189947752053  2.7084189947752053 13.2454243124999991   F   F   F
  5.4168379895504106  2.7084189947752053 13.2454243124999991   F   F   F
  0.0000000000000000  5.4168379895504106 13.2454243124999991   F   F   F
  2.7084189947752053  5.4168379895504106 13.2454243124999991   F   F   F
  5.4168379895504106  5.4168379895504106 13.2454243124999991   F   F   F
  1.3663485312998336  1.3552752014254812 15.1949629549500020   T   T   T
  4.0504894582505786  1.3552752014254812 15.1949629549500020   T   T   T
  6.7710474869380128  1.3567948017254083 15.1692413660968199   T   T   T
  1.3494924074436863  4.0626284921628084 15.1850046415624060   T   T   T
  4.0673455821067224  4.0626284921628084 15.1850046415624060   T   T   T
  6.7710474869380128  4.0626284921628084 15.1747067783092593   T   T   T
  1.3663485312998336  6.7699817829001354 15.1949629549500020   T   T   T
  4.0504894582505786  6.7699817829001354 15.1949629549500020   T   T   T
  6.7710474869380128  6.7684621826002083 15.1692413660968199   T   T   T
 -0.0068730009951313  0.0000000000000000 17.0279175016091671   T   T   T
  2.7084189947752053  0.0000000000000000 17.0609907968730141   T   T   T
  5.4237109905455432  0.0000000000000000 17.0279175016091671   T   T   T
 -0.0246976785047016  2.6969433753589076 17.0291281288234515   T   T   T
  2.7084189947752053  2.7003339740504431 17.1688012308744931   T   T   T
  5.4415356680551099  2.6969433753589076 17.0291281288234515   T   T   T
 -0.0246976785047016  5.4283136089667074 17.0291281288234515   T   T   T
  2.7084189947752053  5.4249230102751724 17.1688012308744931   T   T   T
  5.4415356680551099  5.4283136089667074 17.0291281288234515   T   T   T
  2.7084189947752053  4.0626284921628084 18.5646474085699076   T   T   T
  2.7084189947752053  4.0626284921628084 19.7736637827929869   T   T   T
