Ir  N  O 
 1.0000000000000000
     8.2153868178891649    0.0000000000000000    0.0000000000000000
     0.0000000000000000    8.2153868178891649    0.0000000000000000
     0.0000000000000000    0.0000000000000000   24.6819262150000007
 Ir  N   O  
  54   1   1
Selective dynamics
Cartesian
  1.3692311363148608  1.3692311363148608  7.5000000000000000   F   F   F
  4.1076934089445825  1.3692311363148608  7.5000000000000000   F   F   F
  6.8461556815743041  1.3692311363148608  7.5000000000000000   F   F   F
  1.3692311363148608  4.1076934089445825  7.5000000000000000   F   F   F
  4.1076934089445825  4.1076934089445825  7.5000000000000000   F   F   F
  6.8461556815743041  4.1076934089445825  7.5000000000000000   F   F   F
  1.3692311363148608  6.8461556815743041  7.5000000000000000   F   F   F
  4.1076934089445825  6.8461556815743041  7.5000000000000000   F   F   F
  6.8461556815743041  6.8461556815743041  7.5000000000000000   F   F   F
  0.0000000000000000  0.0000000000000000  9.4363852430000001   F   F   F
  2.7384622726297216  0.0000000000000000  9.4363852430000001   F   F   F
  5.4769245452594433  0.0000000000000000  9.4363852430000001   F   F   F
  0.0000000000000000  2.7384622726297216  9.4363852430000001   F   F   F
  2.7384622726297216  2.7384622726297216  9.4363852430000001   F   F   F
  5.4769245452594433  2.7384622726297216  9.4363852430000001   F   F   F
  0.0000000000000000  5.4769245452594433  9.4363852430000001   F   F   F
  2.7384622726297216  5.4769245452594433  9.4363852430000001   F   F   F
  5.4769245452594433  5.4769245452594433  9.4363852430000001   F   F   F
  1.3692311363148608  1.3692311363148608 11.3727704860000003   F   F   F
  4.1076934089445825  1.3692311363148608 11.3727704860000003   F   F   F
  6.8461556815743041  1.3692311363148608 11.3727704860000003   F   F   F
  1.3692311363148608  4.1076934089445825 11.3727704860000003   F   F   F
  4.1076934089445825  4.1076934089445825 11.3727704860000003   F   F   F
  6.8461556815743041  4.1076934089445825 11.3727704860000003   F   F   F
  1.3692311363148608  6.8461556815743041 11.3727704860000003   F   F   F
  4.1076934089445825  6.8461556815743041 11.3727704860000003   F   F   F
  6.8461556815743041  6.8461556815743041 11.3727704860000003   F   F   F
  0.0000000000000000  0.0000000000000000 13.3091557290000004   F   F   F
  2.7384622726297216  0.0000000000000000 13.3091557290000004   F   F   F
  5.4769245452594433  0.0000000000000000 13.3091557290000004   F   F   F
  0.0000000000000000  2.7384622726297216 13.3091557290000004   F   F   F
  2.7384622726297216  2.7384622726297216 13.3091557290000004   F   F   F
  5.4769245452594433  2.7384622726297216 13.3091557290000004   F   F   F
  0.0000000000000000  5.4769245452594433 13.3091557290000004   F   F   F
  2.7384622726297216  5.4769245452594433 13.3091557290000004   F   F   F
  5.4769245452594433  5.4769245452594433 13.3091557290000004   F   F   F
  1.3816220904725864  1.3715187292417430 15.2800362715594531   T   T   T
  4.0953024547868573  1.3715187292417430 15.2800362715594531   T   T   T
  6.8461556815743041  1.3700480013491583 15.2448772835175568   T   T   T
  1.3669365769647079  4.1076934089445825 15.2745793098968310   T   T   T
  4.1099879682947336  4.1076934089445825 15.2745793098968310   T   T   T
  6.8461556815743041  4.1076934089445825 15.2587911009814512   T   T   T
  1.3816220904725864  6.8438680886474197 15.2800362715594531   T   T   T
  4.0953024547868573  6.8438680886474197 15.2800362715594531   T   T   T
  6.8461556815743041  6.8453388165400080 15.2448772835175568   T   T   T
 -0.0138410957215552  0.0000000000000000 17.1079486954326576   T   T   T
  2.7384622726297216  0.0000000000000000 17.1365538076507633   T   T   T
  5.4907656409809968  0.0000000000000000 17.1079486954326576   T   T   T
 -0.0271057958601402  2.7270282683829681 17.1107990542559563   T   T   T
  2.7384622726297216  2.7090053078030527 17.2287079562914016   T   T   T
  5.5040303411195826  2.7270282683829681 17.1107990542559563   T   T   T
 -0.0271057958601402  5.4883585495061968 17.1107990542559563   T   T   T
  2.7384622726297216  5.5063815100861113 17.2287079562914087   T   T   T
  5.5040303411195826  5.4883585495061968 17.1107990542559563   T   T   T
  2.7384622726297216  4.1076934089445825 18.6603689209692405   T   T   T
  2.7384622726297216  4.1076934089445825 19.8694909169983163   T   T   T
