Pd  N  O 
 1.0000000000000000
     8.3586839247702081    0.0000000000000000    0.0000000000000000
     0.0000000000000000    8.3586839247702081    0.0000000000000000
     0.0000000000000000    0.0000000000000000   24.8508034749999993
 Pd  N   O  
  54   1   1
Selective dynamics
Cartesian
  1.3931139874617013  1.3931139874617013  7.5000000000000000   F   F   F
  4.1793419623851040  1.3931139874617013  7.5000000000000000   F   F   F
  6.9655699373085067  1.3931139874617013  7.5000000000000000   F   F   F
  1.3931139874617013  4.1793419623851040  7.5000000000000000   F   F   F
  4.1793419623851040  4.1793419623851040  7.5000000000000000   F   F   F
  6.9655699373085067  4.1793419623851040  7.5000000000000000   F   F   F
  1.3931139874617013  6.9655699373085067  7.5000000000000000   F   F   F
  4.1793419623851040  6.9655699373085067  7.5000000000000000   F   F   F
  6.9655699373085067  6.9655699373085067  7.5000000000000000   F   F   F
  0.0000000000000000  0.0000000000000000  9.4701606950000006   F   F   F
  2.7862279749234027  0.0000000000000000  9.4701606950000006   F   F   F
  5.5724559498468054  0.0000000000000000  9.4701606950000006   F   F   F
  0.0000000000000000  2.7862279749234027  9.4701606950000006   F   F   F
  2.7862279749234027  2.7862279749234027  9.4701606950000006   F   F   F
  5.5724559498468054  2.7862279749234027  9.4701606950000006   F   F   F
  0.0000000000000000  5.5724559498468054  9.4701606950000006   F   F   F
  2.7862279749234027  5.5724559498468054  9.4701606950000006   F   F   F
  5.5724559498468054  5.5724559498468054  9.4701606950000006   F   F   F
  1.3931139874617013  1.3931139874617013 11.4403213899999994   F   F   F
  4.1793419623851040  1.3931139874617013 11.4403213899999994   F   F   F
  6.9655699373085067  1.3931139874617013 11.4403213899999994   F   F   F
  1.3931139874617013  4.1793419623851040 11.4403213899999994   F   F   F
  4.1793419623851040  4.1793419623851040 11.4403213899999994   F   F   F
  6.9655699373085067  4.1793419623851040 11.4403213899999994   F   F   F
  1.3931139874617013  6.9655699373085067 11.4403213899999994   F   F   F
  4.1793419623851040  6.9655699373085067 11.4403213899999994   F   F   F
  6.9655699373085067  6.9655699373085067 11.4403213899999994   F   F   F
  0.0000000000000000  0.0000000000000000 13.4104820849999999   F   F   F
  2.7862279749234027  0.0000000000000000 13.4104820849999999   F   F   F
  5.5724559498468054  0.0000000000000000 13.4104820849999999   F   F   F
  0.0000000000000000  2.7862279749234027 13.4104820849999999   F   F   F
  2.7862279749234027  2.7862279749234027 13.4104820849999999   F   F   F
  5.5724559498468054  2.7862279749234027 13.4104820849999999   F   F   F
  0.0000000000000000  5.5724559498468054 13.4104820849999999   F   F   F
  2.7862279749234027  5.5724559498468054 13.4104820849999999   F   F   F
  5.5724559498468054  5.5724559498468054 13.4104820849999999   F   F   F
  1.4120001536120603  1.3997509067950289 15.4505681858835331   T   T   T
  4.1604557962347455  1.3997509067950289 15.4505681858835331   T   T   T
  6.9655699373085067  1.3893589451530477 15.4064266927403235   T   T   T
  1.4002935173216398  4.1793419623851040 15.4357800456500076   T   T   T
  4.1721624325251678  4.1793419623851040 15.4357800456500076   T   T   T
  6.9655699373085067  4.1793419623851040 15.3956804140416583   T   T   T
  1.4120001536120603  6.9589330179751787 15.4505681858835331   T   T   T
  4.1604557962347455  6.9589330179751787 15.4505681858835331   T   T   T
  6.9655699373085067  6.9693249796171628 15.4064266927403235   T   T   T
 -0.0148391836744263  0.0000000000000000 17.4224400739555456   T   T   T
  2.7862279749234027  0.0000000000000000 17.4552479029887202   T   T   T
  5.5872951335212324  0.0000000000000000 17.4224400739555456   T   T   T
 -0.0316595233829325  2.7835149119381124 17.4005452582296307   T   T   T
  2.7862279749234027  2.7451975533965935 17.5611735913014755   T   T   T
  5.6041154732297374  2.7835149119381124 17.4005452582296307   T   T   T
 -0.0316595233829325  5.5751690128320934 17.4005452582296307   T   T   T
  2.7862279749234027  5.6134863713736136 17.5611735913014755   T   T   T
  5.6041154732297374  5.5751690128320934 17.4005452582296307   T   T   T
  2.7862279749234027  4.1793419623851040 18.9009265706116629   T   T   T
  2.7862279749234027  4.1793419623851040 20.1005360320330624   T   T   T
