Ni  N  O  H 
 1.0000000000000000
     7.4637869660136236    0.0000000000000000    0.0000000000000000
     0.0000000000000000    7.4637869660136236    0.0000000000000000
     0.0000000000000000    0.0000000000000000   23.7961572950000004
 Ni  N   O   H  
  54   1   1   1
Selective dynamics
Cartesian
  1.2439644943356039  1.2439644943356039  7.5000000000000009   F   F   F
  3.7318934830068118  1.2439644943356039  7.5000000000000009   F   F   F
  6.2198224716780190  1.2439644943356039  7.5000000000000009   F   F   F
  1.2439644943356039  3.7318934830068118  7.5000000000000009   F   F   F
  3.7318934830068118  3.7318934830068118  7.5000000000000009   F   F   F
  6.2198224716780190  3.7318934830068118  7.5000000000000009   F   F   F
  1.2439644943356039  6.2198224716780190  7.5000000000000009   F   F   F
  3.7318934830068118  6.2198224716780190  7.5000000000000009   F   F   F
  6.2198224716780190  6.2198224716780190  7.5000000000000009   F   F   F
  0.0000000000000000  0.0000000000000000  9.2592314590000004   F   F   F
  2.4879289886712077  0.0000000000000000  9.2592314590000004   F   F   F
  4.9758579773424154  0.0000000000000000  9.2592314590000004   F   F   F
  0.0000000000000000  2.4879289886712077  9.2592314590000004   F   F   F
  2.4879289886712077  2.4879289886712077  9.2592314590000004   F   F   F
  4.9758579773424154  2.4879289886712077  9.2592314590000004   F   F   F
  0.0000000000000000  4.9758579773424154  9.2592314590000004   F   F   F
  2.4879289886712077  4.9758579773424154  9.2592314590000004   F   F   F
  4.9758579773424154  4.9758579773424154  9.2592314590000004   F   F   F
  1.2439644943356039  1.2439644943356039 11.0184629180000009   F   F   F
  3.7318934830068118  1.2439644943356039 11.0184629180000009   F   F   F
  6.2198224716780190  1.2439644943356039 11.0184629180000009   F   F   F
  1.2439644943356039  3.7318934830068118 11.0184629180000009   F   F   F
  3.7318934830068118  3.7318934830068118 11.0184629180000009   F   F   F
  6.2198224716780190  3.7318934830068118 11.0184629180000009   F   F   F
  1.2439644943356039  6.2198224716780190 11.0184629180000009   F   F   F
  3.7318934830068118  6.2198224716780190 11.0184629180000009   F   F   F
  6.2198224716780190  6.2198224716780190 11.0184629180000009   F   F   F
  0.0000000000000000  0.0000000000000000 12.7776943769999995   F   F   F
  2.4879289886712077  0.0000000000000000 12.7776943769999995   F   F   F
  4.9758579773424154  0.0000000000000000 12.7776943769999995   F   F   F
  0.0000000000000000  2.4879289886712077 12.7776943769999995   F   F   F
  2.4879289886712077  2.4879289886712077 12.7776943769999995   F   F   F
  4.9758579773424154  2.4879289886712077 12.7776943769999995   F   F   F
  0.0000000000000000  4.9758579773424154 12.7776943769999995   F   F   F
  2.4879289886712077  4.9758579773424154 12.7776943769999995   F   F   F
  4.9758579773424154  4.9758579773424154 12.7776943769999995   F   F   F
  1.2547450913476006  1.2533322944442382 14.5844948985217187   T   T   T
  3.7322420996965033  1.2519849977434354 14.5773979460833516   T   T   T
  6.2061109449497716  1.2487289874113867 14.5821563442631454   T   T   T
  1.2511629406752325  3.7318934273446489 14.5804774450508958   T   T   T
  3.7259413502150243  3.7317761367767623 14.5677835717038011   T   T   T
  6.2116147571465401  3.7317994245989081 14.5701787444029272   T   T   T
  1.2548469111413973  6.2104013270851652 14.5845614024259849   T   T   T
  3.7323691922088380  6.2112771944122045 14.5776499556461463   T   T   T
  6.2062126196197722  6.2146837706783167 14.5822864062335498   T   T   T
 -0.0017530436549985  0.0000182395396372 16.2983413594304629   T   T   T
  2.4877640291239325 -0.0001195894224754 16.2881820263969352   T   T   T
  4.9751049676163381 -0.0003711139867613 16.2930298116976253   T   T   T
 -0.0068927088668052  2.4809177932877886 16.2798439256007548   T   T   T
  2.4570311879553985  2.4441683257621283 16.4063423317176316   T   T   T
  5.0029072241967310  2.4603442569379994 16.4102264897338479   T   T   T
 -0.0065043074694392  4.9828326039140531 16.2800207674819681   T   T   T
  2.4574327923596617  5.0192624435297093 16.4065670354342821   T   T   T
  5.0034869903606314  5.0021297696790681 16.4115336888675145   T   T   T
  4.4270240997880990  3.7308673070012013 17.7015166288277754   T   T   T
  2.9715310804736967  3.7314053435420749 17.8022487401731233   T   T   T
  4.7599773171241875  3.7278534785733450 18.6743839152510382   T   T   T
