Cu  N  O  H 
 1.0000000000000000
     7.7122337857502483    0.0000000000000000    0.0000000000000000
     0.0000000000000000    7.7122337857502483    0.0000000000000000
     0.0000000000000000    0.0000000000000000   24.0889546800000005
 Cu  N   O   H  
  54   1   1   1
Selective dynamics
Cartesian
  1.2853722976250412  1.2853722976250412  7.5000000000000000   F   F   F
  3.8561168928751237  1.2853722976250412  7.5000000000000000   F   F   F
  6.4268614881252066  1.2853722976250412  7.5000000000000000   F   F   F
  1.2853722976250412  3.8561168928751237  7.5000000000000000   F   F   F
  3.8561168928751237  3.8561168928751237  7.5000000000000000   F   F   F
  6.4268614881252066  3.8561168928751237  7.5000000000000000   F   F   F
  1.2853722976250412  6.4268614881252066  7.5000000000000000   F   F   F
  3.8561168928751237  6.4268614881252066  7.5000000000000000   F   F   F
  6.4268614881252066  6.4268614881252066  7.5000000000000000   F   F   F
  0.0000000000000000  0.0000000000000000  9.3177909359999997   F   F   F
  2.5707445952500825  0.0000000000000000  9.3177909359999997   F   F   F
  5.1414891905001650  0.0000000000000000  9.3177909359999997   F   F   F
  0.0000000000000000  2.5707445952500825  9.3177909359999997   F   F   F
  2.5707445952500825  2.5707445952500825  9.3177909359999997   F   F   F
  5.1414891905001650  2.5707445952500825  9.3177909359999997   F   F   F
  0.0000000000000000  5.1414891905001650  9.3177909359999997   F   F   F
  2.5707445952500825  5.1414891905001650  9.3177909359999997   F   F   F
  5.1414891905001650  5.1414891905001650  9.3177909359999997   F   F   F
  1.2853722976250412  1.2853722976250412 11.1355818719999995   F   F   F
  3.8561168928751237  1.2853722976250412 11.1355818719999995   F   F   F
  6.4268614881252066  1.2853722976250412 11.1355818719999995   F   F   F
  1.2853722976250412  3.8561168928751237 11.1355818719999995   F   F   F
  3.8561168928751237  3.8561168928751237 11.1355818719999995   F   F   F
  6.4268614881252066  3.8561168928751237 11.1355818719999995   F   F   F
  1.2853722976250412  6.4268614881252066 11.1355818719999995   F   F   F
  3.8561168928751237  6.4268614881252066 11.1355818719999995   F   F   F
  6.4268614881252066  6.4268614881252066 11.1355818719999995   F   F   F
  0.0000000000000000  0.0000000000000000 12.9533728080000010   F   F   F
  2.5707445952500825  0.0000000000000000 12.9533728080000010   F   F   F
  5.1414891905001650  0.0000000000000000 12.9533728080000010   F   F   F
  0.0000000000000000  2.5707445952500825 12.9533728080000010   F   F   F
  2.5707445952500825  2.5707445952500825 12.9533728080000010   F   F   F
  5.1414891905001650  2.5707445952500825 12.9533728080000010   F   F   F
  0.0000000000000000  5.1414891905001650 12.9533728080000010   F   F   F
  2.5707445952500825  5.1414891905001650 12.9533728080000010   F   F   F
  5.1414891905001650  5.1414891905001650 12.9533728080000010   F   F   F
  1.2962317715139580  1.2954209546452193 14.8359902676710433   T   T   T
  3.8563396421661871  1.3177530144412202 14.8538015262344860   T   T   T
  6.4062245158435909  1.2973570295742416 14.8419007187735943   T   T   T
  1.2940022062635190  3.8564384622384527 14.8373908593163293   T   T   T
  3.8468852279009660  3.8600047071536463 14.8134286073047790   T   T   T
  6.4038532202084797  3.8572130608581006 14.8354052641759591   T   T   T
  1.2921247908162741  6.4165833130853569 14.8381875796391132   T   T   T
  3.8520515799980397  6.4007606741732070 14.8542340500368777   T   T   T
  6.4017453306931884  6.4183783766668503 14.8413979754512884   T   T   T
 -0.0091363254028835 -0.0015730469549402 16.6582548699999187   T   T   T
  2.5581248837966415  0.0016376194438914 16.6162978519275413   T   T   T
  5.1400783679659350  0.0078336716786207 16.6289713248750175   T   T   T
 -0.0070350963069979  2.5559104563594555 16.6096447084169867   T   T   T
  2.5141474167270195  2.5087781490501770 16.7399911213523502   T   T   T
  5.1840262949772571  2.5173881391166013 16.7702125084617997   T   T   T
 -0.0172282686867965  5.1542953906880733 16.6103528845738566   T   T   T
  2.5017065959558060  5.2065322576184609 16.7408406986969460   T   T   T
  5.1738284273009789  5.2117575989261162 16.7714746606027809   T   T   T
  4.5330556047236827  3.8618177643628244 18.0737403309384987   T   T   T
  3.0663894392137752  3.8570230199022406 18.1354857230503548   T   T   T
  4.8331661752938881  3.8658472322726092 19.0561957871737917   T   T   T
