Au  N  O  H 
 1.0000000000000000
     8.8201600910041655    0.0000000000000000    0.0000000000000000
     0.0000000000000000    8.8201600910041655    0.0000000000000000
     0.0000000000000000    0.0000000000000000   25.3946583525000023
 Au  N   O   H  
  54   1   1   1
Selective dynamics
Cartesian
  1.4700266818340275  1.4700266818340275  7.5000000000000000   F   F   F
  4.4100800455020828  1.4700266818340275  7.5000000000000000   F   F   F
  7.3501334091701374  1.4700266818340275  7.5000000000000000   F   F   F
  1.4700266818340275  4.4100800455020828  7.5000000000000000   F   F   F
  4.4100800455020828  4.4100800455020828  7.5000000000000000   F   F   F
  7.3501334091701374  4.4100800455020828  7.5000000000000000   F   F   F
  1.4700266818340275  7.3501334091701374  7.5000000000000000   F   F   F
  4.4100800455020828  7.3501334091701374  7.5000000000000000   F   F   F
  7.3501334091701374  7.3501334091701374  7.5000000000000000   F   F   F
  0.0000000000000000  0.0000000000000000  9.5789316705000012   F   F   F
  2.9400533636680550  0.0000000000000000  9.5789316705000012   F   F   F
  5.8801067273361101  0.0000000000000000  9.5789316705000012   F   F   F
  0.0000000000000000  2.9400533636680550  9.5789316705000012   F   F   F
  2.9400533636680550  2.9400533636680550  9.5789316705000012   F   F   F
  5.8801067273361101  2.9400533636680550  9.5789316705000012   F   F   F
  0.0000000000000000  5.8801067273361101  9.5789316705000012   F   F   F
  2.9400533636680550  5.8801067273361101  9.5789316705000012   F   F   F
  5.8801067273361101  5.8801067273361101  9.5789316705000012   F   F   F
  1.4700266818340275  1.4700266818340275 11.6578633410000005   F   F   F
  4.4100800455020828  1.4700266818340275 11.6578633410000005   F   F   F
  7.3501334091701374  1.4700266818340275 11.6578633410000005   F   F   F
  1.4700266818340275  4.4100800455020828 11.6578633410000005   F   F   F
  4.4100800455020828  4.4100800455020828 11.6578633410000005   F   F   F
  7.3501334091701374  4.4100800455020828 11.6578633410000005   F   F   F
  1.4700266818340275  7.3501334091701374 11.6578633410000005   F   F   F
  4.4100800455020828  7.3501334091701374 11.6578633410000005   F   F   F
  7.3501334091701374  7.3501334091701374 11.6578633410000005   F   F   F
  0.0000000000000000  0.0000000000000000 13.7367950114999999   F   F   F
  2.9400533636680550  0.0000000000000000 13.7367950114999999   F   F   F
  5.8801067273361101  0.0000000000000000 13.7367950114999999   F   F   F
  0.0000000000000000  2.9400533636680550 13.7367950114999999   F   F   F
  2.9400533636680550  2.9400533636680550 13.7367950114999999   F   F   F
  5.8801067273361101  2.9400533636680550 13.7367950114999999   F   F   F
  0.0000000000000000  5.8801067273361101 13.7367950114999999   F   F   F
  2.9400533636680550  5.8801067273361101 13.7367950114999999   F   F   F
  5.8801067273361101  5.8801067273361101 13.7367950114999999   F   F   F
  1.4692044195142921  1.4539925051463594 15.8384190482242442   T   T   T
  4.4254136846351697  1.4877382020013965 15.8843453715631089   T   T   T
  7.3364678321765160  1.4829925515044189 15.8754314619202752   T   T   T
  1.4575047200589637  4.4102365355872415 15.8538976226879367   T   T   T
  4.4212884625453128  4.4102161007541918 15.8871846262237142   T   T   T
  7.3230536759615861  4.4100090529045133 15.8827203649025215   T   T   T
  1.4692556753408432  7.3661489375724098 15.8385882413722783   T   T   T
  4.4254788231117130  7.3323636575425288 15.8844823975375959   T   T   T
  7.3365239295144615  7.3366745990329605 15.8755878146347360   T   T   T
  0.0160914889264895 -0.0002113000994507 17.9806274901076861   T   T   T
  2.9351513162263427  0.0002517724966428 17.9769012362302405   T   T   T
  5.8866985476802896 -0.0007471592506232 17.9796795868520149   T   T   T
  0.0103175005892573  2.9234440230876402 17.9493615446467309   T   T   T
  2.8934267221399916  2.9268718807677043 17.9438228768006844   T   T   T
  5.8602169580415229  2.8274671332059751 18.0886672311651502   T   T   T
  0.0102979315299513  5.8962879795924090 17.9497521870297980   T   T   T
  2.8938100318473827  5.8937938317345395 17.9442110983902694   T   T   T
  5.8604752160650211  5.9912548358298308 18.0898266441631002   T   T   T
  6.0589319051136590  4.4072471033493779 19.7778765798698686   T   T   T
  5.2784000913346336  4.4063000851010505 20.7662762916399011   T   T   T
  7.0691223016297950  4.4076206293558586 20.0599872678544102   T   T   T
