Ir  N  O  H 
 1.0000000000000000
     8.2153868178891649    0.0000000000000000    0.0000000000000000
     0.0000000000000000    8.2153868178891649    0.0000000000000000
     0.0000000000000000    0.0000000000000000   24.6819262150000007
 Ir  N   O   H  
  54   1   1   1
Selective dynamics
Cartesian
  1.3692311363148608  1.3692311363148608  7.5000000000000000   F   F   F
  4.1076934089445825  1.3692311363148608  7.5000000000000000   F   F   F
  6.8461556815743041  1.3692311363148608  7.5000000000000000   F   F   F
  1.3692311363148608  4.1076934089445825  7.5000000000000000   F   F   F
  4.1076934089445825  4.1076934089445825  7.5000000000000000   F   F   F
  6.8461556815743041  4.1076934089445825  7.5000000000000000   F   F   F
  1.3692311363148608  6.8461556815743041  7.5000000000000000   F   F   F
  4.1076934089445825  6.8461556815743041  7.5000000000000000   F   F   F
  6.8461556815743041  6.8461556815743041  7.5000000000000000   F   F   F
  0.0000000000000000  0.0000000000000000  9.4363852430000001   F   F   F
  2.7384622726297216  0.0000000000000000  9.4363852430000001   F   F   F
  5.4769245452594433  0.0000000000000000  9.4363852430000001   F   F   F
  0.0000000000000000  2.7384622726297216  9.4363852430000001   F   F   F
  2.7384622726297216  2.7384622726297216  9.4363852430000001   F   F   F
  5.4769245452594433  2.7384622726297216  9.4363852430000001   F   F   F
  0.0000000000000000  5.4769245452594433  9.4363852430000001   F   F   F
  2.7384622726297216  5.4769245452594433  9.4363852430000001   F   F   F
  5.4769245452594433  5.4769245452594433  9.4363852430000001   F   F   F
  1.3692311363148608  1.3692311363148608 11.3727704860000003   F   F   F
  4.1076934089445825  1.3692311363148608 11.3727704860000003   F   F   F
  6.8461556815743041  1.3692311363148608 11.3727704860000003   F   F   F
  1.3692311363148608  4.1076934089445825 11.3727704860000003   F   F   F
  4.1076934089445825  4.1076934089445825 11.3727704860000003   F   F   F
  6.8461556815743041  4.1076934089445825 11.3727704860000003   F   F   F
  1.3692311363148608  6.8461556815743041 11.3727704860000003   F   F   F
  4.1076934089445825  6.8461556815743041 11.3727704860000003   F   F   F
  6.8461556815743041  6.8461556815743041 11.3727704860000003   F   F   F
  0.0000000000000000  0.0000000000000000 13.3091557290000004   F   F   F
  2.7384622726297216  0.0000000000000000 13.3091557290000004   F   F   F
  5.4769245452594433  0.0000000000000000 13.3091557290000004   F   F   F
  0.0000000000000000  2.7384622726297216 13.3091557290000004   F   F   F
  2.7384622726297216  2.7384622726297216 13.3091557290000004   F   F   F
  5.4769245452594433  2.7384622726297216 13.3091557290000004   F   F   F
  0.0000000000000000  5.4769245452594433 13.3091557290000004   F   F   F
  2.7384622726297216  5.4769245452594433 13.3091557290000004   F   F   F
  5.4769245452594433  5.4769245452594433 13.3091557290000004   F   F   F
  1.3780819306039709  1.3870340000039385 15.2765157322858123   T   T   T
  4.1109668105101997  1.3760822423892631 15.2483938291652024   T   T   T
  6.8399285634267226  1.3753571367426749 15.2732968034493783   T   T   T
  1.3672492100257088  4.1078090442564088 15.2779077756059003   T   T   T
  4.1008489276044786  4.1078182628874602 15.2674176740613987   T   T   T
  6.8434571234113077  4.1078580378625116 15.2720363652615507   T   T   T
  1.3780601131469550  6.8285967702466213 15.2764738265350264   T   T   T
  4.1109847416028202  6.8396128381312105 15.2483086656558697   T   T   T
  6.8399802540568233  6.8403321375430126 15.2732623879638201   T   T   T
 -0.0015347448233961  0.0001045976799688 17.1102227112533356   T   T   T
  2.7379414723167770  0.0001410651135010 17.1008967476666811   T   T   T
  5.4786506986965211  0.0001120353865586 17.1058661030480827   T   T   T
 -0.0043805569047964  2.7310213924264506 17.1216157698915374   T   T   T
  2.7219277075754205  2.6612849796709104 17.1785024131120778   T   T   T
  5.4814419890939066  2.6833161964916497 17.1979731985096862   T   T   T
 -0.0044473665226326  5.4847289591949453 17.1215094042383171   T   T   T
  2.7219457170400823  5.5545789481194028 17.1783893178338261   T   T   T
  5.4813394626242342  5.5326777608368571 17.1975709414383928   T   T   T
  4.8425893406520704  4.1082868966403190 18.5576291932503814   T   T   T
  3.3512746846902943  4.1081245357023048 18.6636323711209968   T   T   T
  5.1568821139215197  4.1095365243363187 19.5356691544300745   T   T   T
