Pd  N  O  H 
 1.0000000000000000
     8.3586839247702081    0.0000000000000000    0.0000000000000000
     0.0000000000000000    8.3586839247702081    0.0000000000000000
     0.0000000000000000    0.0000000000000000   24.8508034749999993
 Pd  N   O   H  
  54   1   1   1
Selective dynamics
Cartesian
  1.3931139874617013  1.3931139874617013  7.5000000000000000   F   F   F
  4.1793419623851040  1.3931139874617013  7.5000000000000000   F   F   F
  6.9655699373085067  1.3931139874617013  7.5000000000000000   F   F   F
  1.3931139874617013  4.1793419623851040  7.5000000000000000   F   F   F
  4.1793419623851040  4.1793419623851040  7.5000000000000000   F   F   F
  6.9655699373085067  4.1793419623851040  7.5000000000000000   F   F   F
  1.3931139874617013  6.9655699373085067  7.5000000000000000   F   F   F
  4.1793419623851040  6.9655699373085067  7.5000000000000000   F   F   F
  6.9655699373085067  6.9655699373085067  7.5000000000000000   F   F   F
  0.0000000000000000  0.0000000000000000  9.4701606950000006   F   F   F
  2.7862279749234027  0.0000000000000000  9.4701606950000006   F   F   F
  5.5724559498468054  0.0000000000000000  9.4701606950000006   F   F   F
  0.0000000000000000  2.7862279749234027  9.4701606950000006   F   F   F
  2.7862279749234027  2.7862279749234027  9.4701606950000006   F   F   F
  5.5724559498468054  2.7862279749234027  9.4701606950000006   F   F   F
  0.0000000000000000  5.5724559498468054  9.4701606950000006   F   F   F
  2.7862279749234027  5.5724559498468054  9.4701606950000006   F   F   F
  5.5724559498468054  5.5724559498468054  9.4701606950000006   F   F   F
  1.3931139874617013  1.3931139874617013 11.4403213899999994   F   F   F
  4.1793419623851040  1.3931139874617013 11.4403213899999994   F   F   F
  6.9655699373085067  1.3931139874617013 11.4403213899999994   F   F   F
  1.3931139874617013  4.1793419623851040 11.4403213899999994   F   F   F
  4.1793419623851040  4.1793419623851040 11.4403213899999994   F   F   F
  6.9655699373085067  4.1793419623851040 11.4403213899999994   F   F   F
  1.3931139874617013  6.9655699373085067 11.4403213899999994   F   F   F
  4.1793419623851040  6.9655699373085067 11.4403213899999994   F   F   F
  6.9655699373085067  6.9655699373085067 11.4403213899999994   F   F   F
  0.0000000000000000  0.0000000000000000 13.4104820849999999   F   F   F
  2.7862279749234027  0.0000000000000000 13.4104820849999999   F   F   F
  5.5724559498468054  0.0000000000000000 13.4104820849999999   F   F   F
  0.0000000000000000  2.7862279749234027 13.4104820849999999   F   F   F
  2.7862279749234027  2.7862279749234027 13.4104820849999999   F   F   F
  5.5724559498468054  2.7862279749234027 13.4104820849999999   F   F   F
  0.0000000000000000  5.5724559498468054 13.4104820849999999   F   F   F
  2.7862279749234027  5.5724559498468054 13.4104820849999999   F   F   F
  5.5724559498468054  5.5724559498468054 13.4104820849999999   F   F   F
  1.4008533508015784  1.4033420533786283 15.4492795408586119   T   T   T
  4.1772901099325610  1.3838958093010849 15.4107624446190883   T   T   T
  6.9454864016529072  1.4051525650302186 15.4542912921853972   T   T   T
  1.3860770141607233  4.1793026289575383 15.4258920879881885   T   T   T
  4.1697577879379457  4.1790791579477125 15.4111245110932629   T   T   T
  6.9597944556879172  4.1798620226992584 15.4214994535485754   T   T   T
  1.4021084198734379  6.9540250264807284 15.4499202610439781   T   T   T
  4.1785133605527465  6.9732210029125135 15.4112509436650686   T   T   T
  6.9466244382181026  6.9530202760597133 15.4544916970885780   T   T   T
 -0.0018925379044792 -0.0001225500495942 17.4496062600371999   T   T   T
  2.7865950532196639 -0.0007664743504209 17.4282985858603574   T   T   T
  5.5562967459996866 -0.0020214845448922 17.4347347110749524   T   T   T
 -0.0108151852079865  2.7877618387265080 17.4235238620076345   T   T   T
  2.7556575344875789  2.7322826780290863 17.4734245692164798   T   T   T
  5.5722332266520311  2.7497638684590631 17.4949638404158776   T   T   T
 -0.0112154936154503  5.5713763453973009 17.4248287238983295   T   T   T
  2.7565407305665910  5.6245203884950854 17.4754124644833695   T   T   T
  5.5705795918681291  5.6046298134606332 17.4980155837811822   T   T   T
  4.8898739602340457  4.1755395024584434 18.8148626077506158   T   T   T
  3.5252438236014103  4.1757380871284999 18.9677259331435373   T   T   T
  5.2956590622623372  4.1760066833056246 19.7650202078443549   T   T   T
