Pt  N  O  H 
 1.0000000000000000
     8.4158755336982694    0.0000000000000000    0.0000000000000000
     0.0000000000000000    8.4158755336982694    0.0000000000000000
     0.0000000000000000    0.0000000000000000   24.9182044325000014
 Pt  N   O   H  
  54   1   1   1
Selective dynamics
Cartesian
  1.4026459222830447  1.4026459222830447  7.5000000000000000   F   F   F
  4.2079377668491347  1.4026459222830447  7.5000000000000000   F   F   F
  7.0132296114152233  1.4026459222830447  7.5000000000000000   F   F   F
  1.4026459222830447  4.2079377668491347  7.5000000000000000   F   F   F
  4.2079377668491347  4.2079377668491347  7.5000000000000000   F   F   F
  7.0132296114152233  4.2079377668491347  7.5000000000000000   F   F   F
  1.4026459222830447  7.0132296114152233  7.5000000000000000   F   F   F
  4.2079377668491347  7.0132296114152233  7.5000000000000000   F   F   F
  7.0132296114152233  7.0132296114152233  7.5000000000000000   F   F   F
  0.0000000000000000  0.0000000000000000  9.4836408864999999   F   F   F
  2.8052918445660895  0.0000000000000000  9.4836408864999999   F   F   F
  5.6105836891321790  0.0000000000000000  9.4836408864999999   F   F   F
  0.0000000000000000  2.8052918445660895  9.4836408864999999   F   F   F
  2.8052918445660895  2.8052918445660895  9.4836408864999999   F   F   F
  5.6105836891321790  2.8052918445660895  9.4836408864999999   F   F   F
  0.0000000000000000  5.6105836891321790  9.4836408864999999   F   F   F
  2.8052918445660895  5.6105836891321790  9.4836408864999999   F   F   F
  5.6105836891321790  5.6105836891321790  9.4836408864999999   F   F   F
  1.4026459222830447  1.4026459222830447 11.4672817729999998   F   F   F
  4.2079377668491347  1.4026459222830447 11.4672817729999998   F   F   F
  7.0132296114152233  1.4026459222830447 11.4672817729999998   F   F   F
  1.4026459222830447  4.2079377668491347 11.4672817729999998   F   F   F
  4.2079377668491347  4.2079377668491347 11.4672817729999998   F   F   F
  7.0132296114152233  4.2079377668491347 11.4672817729999998   F   F   F
  1.4026459222830447  7.0132296114152233 11.4672817729999998   F   F   F
  4.2079377668491347  7.0132296114152233 11.4672817729999998   F   F   F
  7.0132296114152233  7.0132296114152233 11.4672817729999998   F   F   F
  0.0000000000000000  0.0000000000000000 13.4509226595000015   F   F   F
  2.8052918445660895  0.0000000000000000 13.4509226595000015   F   F   F
  5.6105836891321790  0.0000000000000000 13.4509226595000015   F   F   F
  0.0000000000000000  2.8052918445660895 13.4509226595000015   F   F   F
  2.8052918445660895  2.8052918445660895 13.4509226595000015   F   F   F
  5.6105836891321790  2.8052918445660895 13.4509226595000015   F   F   F
  0.0000000000000000  5.6105836891321790 13.4509226595000015   F   F   F
  2.8052918445660895  5.6105836891321790 13.4509226595000015   F   F   F
  5.6105836891321790  5.6105836891321790 13.4509226595000015   F   F   F
  1.4110902800631355  1.4159623114481694 15.4786839545357342   T   T   T
  4.2071955257956866  1.3984405663201467 15.4332568820224836   T   T   T
  6.9900656579063423  1.4159639517590481 15.4889376540446708   T   T   T
  1.3974208053193851  4.2080106480378090 15.4637100320487946   T   T   T
  4.1956653318719805  4.2079933330244481 15.4497370050390348   T   T   T
  6.9924541545570618  4.2079774413615487 15.4589615940459488   T   T   T
  1.4111470992489983  6.9999935600026415 15.4787258074789609   T   T   T
  4.2071954424995468  7.0173971446938541 15.4333361291680458   T   T   T
  6.9900887099228139  6.9999629753790504 15.4889451805991545   T   T   T
 -0.0037223937863289  0.0000860075449686 17.4330282570768453   T   T   T
  2.8037292792903230  0.0000325452556951 17.4307885751900571   T   T   T
  5.5878287232055639  0.0000168860723484 17.4322269281196469   T   T   T
 -0.0199745741614067  2.8155899957492911 17.4164189122542972   T   T   T
  2.7566751435731116  2.6992019308864412 17.4745728510397349   T   T   T
  5.6158577354039307  2.7165114659821530 17.5191521070546976   T   T   T
 -0.0198860440632314  5.6004558336867838 17.4164471049138037   T   T   T
  2.7567750799313719  5.7168350707185436 17.4745803553963661   T   T   T
  5.6159432170012220  5.6992731858865300 17.5194336336463543   T   T   T
  4.9406217478704404  4.2078407262649922 18.7710557796996582   T   T   T
  3.4988370721244504  4.2079181601148665 18.8978783588888177   T   T   T
  5.2829288460384856  4.2073496921620421 19.7415699620519156   T   T   T
