Rh  N  O  H 
 1.0000000000000000
     8.1252569843256168    0.0000000000000000    0.0000000000000000
     0.0000000000000000    8.1252569843256168    0.0000000000000000
     0.0000000000000000    0.0000000000000000   24.5757071875000008
 Rh  N   O   H  
  54   1   1   1
Selective dynamics
Cartesian
  1.3542094973876027  1.3542094973876027  7.5000000000000000   F   F   F
  4.0626284921628084  1.3542094973876027  7.5000000000000000   F   F   F
  6.7710474869380128  1.3542094973876027  7.5000000000000000   F   F   F
  1.3542094973876027  4.0626284921628084  7.5000000000000000   F   F   F
  4.0626284921628084  4.0626284921628084  7.5000000000000000   F   F   F
  6.7710474869380128  4.0626284921628084  7.5000000000000000   F   F   F
  1.3542094973876027  6.7710474869380128  7.5000000000000000   F   F   F
  4.0626284921628084  6.7710474869380128  7.5000000000000000   F   F   F
  6.7710474869380128  6.7710474869380128  7.5000000000000000   F   F   F
  0.0000000000000000  0.0000000000000000  9.4151414375000009   F   F   F
  2.7084189947752053  0.0000000000000000  9.4151414375000009   F   F   F
  5.4168379895504106  0.0000000000000000  9.4151414375000009   F   F   F
  0.0000000000000000  2.7084189947752053  9.4151414375000009   F   F   F
  2.7084189947752053  2.7084189947752053  9.4151414375000009   F   F   F
  5.4168379895504106  2.7084189947752053  9.4151414375000009   F   F   F
  0.0000000000000000  5.4168379895504106  9.4151414375000009   F   F   F
  2.7084189947752053  5.4168379895504106  9.4151414375000009   F   F   F
  5.4168379895504106  5.4168379895504106  9.4151414375000009   F   F   F
  1.3542094973876027  1.3542094973876027 11.3302828750000000   F   F   F
  4.0626284921628084  1.3542094973876027 11.3302828750000000   F   F   F
  6.7710474869380128  1.3542094973876027 11.3302828750000000   F   F   F
  1.3542094973876027  4.0626284921628084 11.3302828750000000   F   F   F
  4.0626284921628084  4.0626284921628084 11.3302828750000000   F   F   F
  6.7710474869380128  4.0626284921628084 11.3302828750000000   F   F   F
  1.3542094973876027  6.7710474869380128 11.3302828750000000   F   F   F
  4.0626284921628084  6.7710474869380128 11.3302828750000000   F   F   F
  6.7710474869380128  6.7710474869380128 11.3302828750000000   F   F   F
  0.0000000000000000  0.0000000000000000 13.2454243124999991   F   F   F
  2.7084189947752053  0.0000000000000000 13.2454243124999991   F   F   F
  5.4168379895504106  0.0000000000000000 13.2454243124999991   F   F   F
  0.0000000000000000  2.7084189947752053 13.2454243124999991   F   F   F
  2.7084189947752053  2.7084189947752053 13.2454243124999991   F   F   F
  5.4168379895504106  2.7084189947752053 13.2454243124999991   F   F   F
  0.0000000000000000  5.4168379895504106 13.2454243124999991   F   F   F
  2.7084189947752053  5.4168379895504106 13.2454243124999991   F   F   F
  5.4168379895504106  5.4168379895504106 13.2454243124999991   F   F   F
  1.3675984212319217  1.3669777739219775 15.1984950294859260   T   T   T
  4.0665360918429512  1.3527294188882935 15.1709184824335299   T   T   T
  6.7641925113968480  1.3567670953009237 15.1904004696939623   T   T   T
  1.3457587740895847  4.0626861007944290 15.1861784090638707   T   T   T
  4.0570785719911058  4.0627237531450469 15.1684956916661307   T   T   T
  6.7728912340921701  4.0627302518432753 15.1816854595455411   T   T   T
  1.3675273259859511  6.7584957103023253 15.1984570548300049   T   T   T
  4.0664537836800854  6.7728295578025017 15.1707578842284576   T   T   T
  6.7643234582751530  6.7688036116809069 15.1901796356990690   T   T   T
 -0.0024754607683042  0.0000933504207100 17.0358149157081371   T   T   T
  2.7077448786829232  0.0001214491577148 17.0311372043989202   T   T   T
  5.4218877265955179  0.0001890675748389 17.0373499386839420   T   T   T
 -0.0070158291339438  2.6964790971432024 17.0349229008861833   T   T   T
  2.6945068268117089  2.6661468174890444 17.1000265787982713   T   T   T
  5.4166423089983597  2.6902543221963540 17.1261272327858265   T   T   T
 -0.0070708951721925  5.4290539777894580 17.0347995930994927   T   T   T
  2.6944164473314953  5.4595231488467997 17.0998774738261083   T   T   T
  5.4163559501079979  5.4356499097000013 17.1255705365247586   T   T   T
  4.7574617126208203  4.0634465577674215 18.4915456634554261   T   T   T
  3.3280400296254364  4.0632656314785169 18.6090508634434677   T   T   T
  5.1094993819459198  4.0646268235331071 19.4582967141262593   T   T   T
