Ag  N  O  H 
 1.0000000000000000
     8.7962652734892650    0.0000000000000000    0.0000000000000000
     0.0000000000000000    8.7962652734892650    0.0000000000000000
     0.0000000000000000    0.0000000000000000   25.3664980399999997
 Ag  N   O   H  
  54   1   1   1
Selective dynamics
Cartesian
  1.4660442122482107  1.4660442122482107  7.5000000000000000   F   F   F
  4.3981326367446325  1.4660442122482107  7.5000000000000000   F   F   F
  7.3302210612410530  1.4660442122482107  7.5000000000000000   F   F   F
  1.4660442122482107  4.3981326367446325  7.5000000000000000   F   F   F
  4.3981326367446325  4.3981326367446325  7.5000000000000000   F   F   F
  7.3302210612410530  4.3981326367446325  7.5000000000000000   F   F   F
  1.4660442122482107  7.3302210612410530  7.5000000000000000   F   F   F
  4.3981326367446325  7.3302210612410530  7.5000000000000000   F   F   F
  7.3302210612410530  7.3302210612410530  7.5000000000000000   F   F   F
  0.0000000000000000  0.0000000000000000  9.5732996079999992   F   F   F
  2.9320884244964214  0.0000000000000000  9.5732996079999992   F   F   F
  5.8641768489928427  0.0000000000000000  9.5732996079999992   F   F   F
  0.0000000000000000  2.9320884244964214  9.5732996079999992   F   F   F
  2.9320884244964214  2.9320884244964214  9.5732996079999992   F   F   F
  5.8641768489928427  2.9320884244964214  9.5732996079999992   F   F   F
  0.0000000000000000  5.8641768489928427  9.5732996079999992   F   F   F
  2.9320884244964214  5.8641768489928427  9.5732996079999992   F   F   F
  5.8641768489928427  5.8641768489928427  9.5732996079999992   F   F   F
  1.4660442122482107  1.4660442122482107 11.6465992160000003   F   F   F
  4.3981326367446325  1.4660442122482107 11.6465992160000003   F   F   F
  7.3302210612410530  1.4660442122482107 11.6465992160000003   F   F   F
  1.4660442122482107  4.3981326367446325 11.6465992160000003   F   F   F
  4.3981326367446325  4.3981326367446325 11.6465992160000003   F   F   F
  7.3302210612410530  4.3981326367446325 11.6465992160000003   F   F   F
  1.4660442122482107  7.3302210612410530 11.6465992160000003   F   F   F
  4.3981326367446325  7.3302210612410530 11.6465992160000003   F   F   F
  7.3302210612410530  7.3302210612410530 11.6465992160000003   F   F   F
  0.0000000000000000  0.0000000000000000 13.7198988240000013   F   F   F
  2.9320884244964214  0.0000000000000000 13.7198988240000013   F   F   F
  5.8641768489928427  0.0000000000000000 13.7198988240000013   F   F   F
  0.0000000000000000  2.9320884244964214 13.7198988240000013   F   F   F
  2.9320884244964214  2.9320884244964214 13.7198988240000013   F   F   F
  5.8641768489928427  2.9320884244964214 13.7198988240000013   F   F   F
  0.0000000000000000  5.8641768489928427 13.7198988240000013   F   F   F
  2.9320884244964214  5.8641768489928427 13.7198988240000013   F   F   F
  5.8641768489928427  5.8641768489928427 13.7198988240000013   F   F   F
  1.4703396608934596  1.4680607533564280 15.8734516614362917   T   T   T
  4.4009097358933511  1.4844772396164694 15.8931694744923782   T   T   T
  7.3154373388056095  1.4740703246444764 15.8857862544819568   T   T   T
  1.4685740186328391  4.3981467202120479 15.8768273325489613   T   T   T
  4.3965321250987124  4.3981760328304542 15.8659348766491846   T   T   T
  7.3165661030813176  4.3981744671391700 15.8784218552430865   T   T   T
  1.4702882598120786  7.3282499448983760 15.8734463691636662   T   T   T
  4.4007855614966314  7.3122767142009160 15.8927613445105909   T   T   T
  7.3155000607595806  7.3226195661517686 15.8854862116250199   T   T   T
 -0.0013493863098086 -0.0000091955658390 17.9949583378101430   T   T   T
  2.9231343746721605  0.0001452170794771 17.9703362620106404   T   T   T
  5.8705038258780773  0.0004286547753686 17.9815052206765387   T   T   T
 -0.0016795430771576  2.9172769865653567 17.9672066090483398   T   T   T
  2.8707908205039052  2.8749229097131623 18.0122386738695646   T   T   T
  5.9129366110582939  2.8541244452488312 18.0683470017556616   T   T   T
 -0.0020337167279708  5.8789875660911752 17.9671160335773585   T   T   T
  2.8704645462730389  5.9217657147595659 18.0121692593318734   T   T   T
  5.9122016918134079  5.9429719479790082 18.0666988257428827   T   T   T
  5.0989998496046187  4.3993368247336049 19.5436209940125849   T   T   T
  3.7208519078640263  4.3986778202621544 19.6709132420059412   T   T   T
  5.4782570526098802  4.4027176660127525 20.5044407511484508   T   T   T
