Ni  N  O 
 1.0000000000000000
     7.4637869660136236    0.0000000000000000    0.0000000000000000
     0.0000000000000000    7.4637869660136236    0.0000000000000000
     0.0000000000000000    0.0000000000000000   23.7961572950000004
 Ni  N   O  
  54   1   3
Selective dynamics
Cartesian
  1.2439644943356039  1.2439644943356039  7.5000000000000009   F   F   F
  3.7318934830068118  1.2439644943356039  7.5000000000000009   F   F   F
  6.2198224716780190  1.2439644943356039  7.5000000000000009   F   F   F
  1.2439644943356039  3.7318934830068118  7.5000000000000009   F   F   F
  3.7318934830068118  3.7318934830068118  7.5000000000000009   F   F   F
  6.2198224716780190  3.7318934830068118  7.5000000000000009   F   F   F
  1.2439644943356039  6.2198224716780190  7.5000000000000009   F   F   F
  3.7318934830068118  6.2198224716780190  7.5000000000000009   F   F   F
  6.2198224716780190  6.2198224716780190  7.5000000000000009   F   F   F
  0.0000000000000000  0.0000000000000000  9.2592314590000004   F   F   F
  2.4879289886712077  0.0000000000000000  9.2592314590000004   F   F   F
  4.9758579773424154  0.0000000000000000  9.2592314590000004   F   F   F
  0.0000000000000000  2.4879289886712077  9.2592314590000004   F   F   F
  2.4879289886712077  2.4879289886712077  9.2592314590000004   F   F   F
  4.9758579773424154  2.4879289886712077  9.2592314590000004   F   F   F
  0.0000000000000000  4.9758579773424154  9.2592314590000004   F   F   F
  2.4879289886712077  4.9758579773424154  9.2592314590000004   F   F   F
  4.9758579773424154  4.9758579773424154  9.2592314590000004   F   F   F
  1.2439644943356039  1.2439644943356039 11.0184629180000009   F   F   F
  3.7318934830068118  1.2439644943356039 11.0184629180000009   F   F   F
  6.2198224716780190  1.2439644943356039 11.0184629180000009   F   F   F
  1.2439644943356039  3.7318934830068118 11.0184629180000009   F   F   F
  3.7318934830068118  3.7318934830068118 11.0184629180000009   F   F   F
  6.2198224716780190  3.7318934830068118 11.0184629180000009   F   F   F
  1.2439644943356039  6.2198224716780190 11.0184629180000009   F   F   F
  3.7318934830068118  6.2198224716780190 11.0184629180000009   F   F   F
  6.2198224716780190  6.2198224716780190 11.0184629180000009   F   F   F
  0.0000000000000000  0.0000000000000000 12.7776943769999995   F   F   F
  2.4879289886712077  0.0000000000000000 12.7776943769999995   F   F   F
  4.9758579773424154  0.0000000000000000 12.7776943769999995   F   F   F
  0.0000000000000000  2.4879289886712077 12.7776943769999995   F   F   F
  2.4879289886712077  2.4879289886712077 12.7776943769999995   F   F   F
  4.9758579773424154  2.4879289886712077 12.7776943769999995   F   F   F
  0.0000000000000000  4.9758579773424154 12.7776943769999995   F   F   F
  2.4879289886712077  4.9758579773424154 12.7776943769999995   F   F   F
  4.9758579773424154  4.9758579773424154 12.7776943769999995   F   F   F
  1.2586204912605998  1.2568464337104424 14.5914672482784020   T   T   T
  3.7228992874346152  1.2561539509307131 14.5883472930954881   T   T   T
  6.2226435964696085  1.2399364260539794 14.5645014034593689   T   T   T
  1.2703497679787137  3.7294744510364874 14.6062692141890125   T   T   T
  3.7161398852551302  3.7300983082200849 14.6048803184478455   T   T   T
  6.2242922000648209  3.7305054260083832 14.5663801475870613   T   T   T
  1.2611054084782931  6.2013695682828276 14.5927577507602440   T   T   T
  3.7244076081616235  6.2030385988748016 14.5903689874542213   T   T   T
  6.2241951532076607  6.2198396287776587 14.5644344097920087   T   T   T
 -0.0037912427360502 -0.0030159637460961 16.2953884751318476   T   T   T
  2.4909433816426101 -0.0035245607426722 16.2834773043756300   T   T   T
  4.9856673768156927 -0.0030412035840547 16.2936633942885258   T   T   T
 -0.0160376852632728  2.4818760236180140 16.2922763641467867   T   T   T
  2.4913685061293815  2.4599608749372552 16.4540880243438004   T   T   T
  5.0050866032940391  2.4801938739719915 16.2903756634544905   T   T   T
 -0.0129122303806009  4.9762279718977140 16.2929281050852950   T   T   T
  2.4949029239627132  4.9927774824936844 16.4599561525219507   T   T   T
  5.0080183980236921  4.9771759181326987 16.2922453049599127   T   T   T
  2.6236932057404614  3.7036418083303979 19.0727853467812878   T   T   T
  2.7016660665514149  3.7001251534106436 20.2988084147463184   T   T   T
  2.5892636540641543  2.5728712866564654 18.4100362273977609   T   T   T
  2.5795042688077281  4.8382577089451599 18.4169588841819127   T   T   T
