Au  N  O 
 1.0000000000000000
     8.8201600910041655    0.0000000000000000    0.0000000000000000
     0.0000000000000000    8.8201600910041655    0.0000000000000000
     0.0000000000000000    0.0000000000000000   25.3946583525000023
 Au  N   O  
  54   1   3
Selective dynamics
Cartesian
  1.4700266818340275  1.4700266818340275  7.5000000000000000   F   F   F
  4.4100800455020828  1.4700266818340275  7.5000000000000000   F   F   F
  7.3501334091701374  1.4700266818340275  7.5000000000000000   F   F   F
  1.4700266818340275  4.4100800455020828  7.5000000000000000   F   F   F
  4.4100800455020828  4.4100800455020828  7.5000000000000000   F   F   F
  7.3501334091701374  4.4100800455020828  7.5000000000000000   F   F   F
  1.4700266818340275  7.3501334091701374  7.5000000000000000   F   F   F
  4.4100800455020828  7.3501334091701374  7.5000000000000000   F   F   F
  7.3501334091701374  7.3501334091701374  7.5000000000000000   F   F   F
  0.0000000000000000  0.0000000000000000  9.5789316705000012   F   F   F
  2.9400533636680550  0.0000000000000000  9.5789316705000012   F   F   F
  5.8801067273361101  0.0000000000000000  9.5789316705000012   F   F   F
  0.0000000000000000  2.9400533636680550  9.5789316705000012   F   F   F
  2.9400533636680550  2.9400533636680550  9.5789316705000012   F   F   F
  5.8801067273361101  2.9400533636680550  9.5789316705000012   F   F   F
  0.0000000000000000  5.8801067273361101  9.5789316705000012   F   F   F
  2.9400533636680550  5.8801067273361101  9.5789316705000012   F   F   F
  5.8801067273361101  5.8801067273361101  9.5789316705000012   F   F   F
  1.4700266818340275  1.4700266818340275 11.6578633410000005   F   F   F
  4.4100800455020828  1.4700266818340275 11.6578633410000005   F   F   F
  7.3501334091701374  1.4700266818340275 11.6578633410000005   F   F   F
  1.4700266818340275  4.4100800455020828 11.6578633410000005   F   F   F
  4.4100800455020828  4.4100800455020828 11.6578633410000005   F   F   F
  7.3501334091701374  4.4100800455020828 11.6578633410000005   F   F   F
  1.4700266818340275  7.3501334091701374 11.6578633410000005   F   F   F
  4.4100800455020828  7.3501334091701374 11.6578633410000005   F   F   F
  7.3501334091701374  7.3501334091701374 11.6578633410000005   F   F   F
  0.0000000000000000  0.0000000000000000 13.7367950114999999   F   F   F
  2.9400533636680550  0.0000000000000000 13.7367950114999999   F   F   F
  5.8801067273361101  0.0000000000000000 13.7367950114999999   F   F   F
  0.0000000000000000  2.9400533636680550 13.7367950114999999   F   F   F
  2.9400533636680550  2.9400533636680550 13.7367950114999999   F   F   F
  5.8801067273361101  2.9400533636680550 13.7367950114999999   F   F   F
  0.0000000000000000  5.8801067273361101 13.7367950114999999   F   F   F
  2.9400533636680550  5.8801067273361101 13.7367950114999999   F   F   F
  5.8801067273361101  5.8801067273361101 13.7367950114999999   F   F   F
  1.4866296208505247  1.4892920224072930 15.8830572235529299   T   T   T
  4.4020515171151242  1.4866415929823948 15.8795991333096147   T   T   T
  7.3566650910817488  1.4594233683114681 15.8419494410674631   T   T   T
  1.4958914680308690  4.4115330600078071 15.8953306263126493   T   T   T
  4.4000764339032816  4.4115290347267431 15.8941303365779358   T   T   T
  7.3601768990387200  4.4104111765662486 15.8375605618573285   T   T   T
  1.4870629899987033  7.3335140242708912 15.8816360655276103   T   T   T
  4.4022058789490854  7.3359946948838246 15.8781329770898267   T   T   T
  7.3565534855203829  7.3623158572526375 15.8428399975338081   T   T   T
 -0.0038634889034391  0.0009273231630392 17.9719253507497356   T   T   T
  2.9402671858114959  0.0037626541012002 17.9576443145620708   T   T   T
  5.8904587844231004  0.0012729274123820 17.9630894799838856   T   T   T
 -0.0280456915886113  2.9344175340622862 17.9546288077280778   T   T   T
  2.9337309953311368  2.9092018318233137 18.0222584286548368   T   T   T
  5.9277051235531051  2.9332995926423369 17.9409463240665623   T   T   T
 -0.0283609664890509  5.8879530927864510 17.9537198008102621   T   T   T
  2.9326510461401498  5.9183721430345342 18.0217787890648182   T   T   T
  5.9279187000150984  5.8886854112135554 17.9400032190735246   T   T   T
  3.2299643148154913  4.4336466333353073 20.9701688865057321   T   T   T
  3.4017042581688552  4.4397601633583781 22.1956238425999004   T   T   T
  3.1422706298627885  3.2988363779491165 20.3427912516384666   T   T   T
  3.1388514013197666  5.5660559638769449 20.3352842828574722   T   T   T
