Pt  N  O 
 1.0000000000000000
     8.4158755336982694    0.0000000000000000    0.0000000000000000
     0.0000000000000000    8.4158755336982694    0.0000000000000000
     0.0000000000000000    0.0000000000000000   24.9182044325000014
 Pt  N   O  
  54   1   3
Selective dynamics
Cartesian
  1.4026459222830447  1.4026459222830447  7.5000000000000000   F   F   F
  4.2079377668491347  1.4026459222830447  7.5000000000000000   F   F   F
  7.0132296114152233  1.4026459222830447  7.5000000000000000   F   F   F
  1.4026459222830447  4.2079377668491347  7.5000000000000000   F   F   F
  4.2079377668491347  4.2079377668491347  7.5000000000000000   F   F   F
  7.0132296114152233  4.2079377668491347  7.5000000000000000   F   F   F
  1.4026459222830447  7.0132296114152233  7.5000000000000000   F   F   F
  4.2079377668491347  7.0132296114152233  7.5000000000000000   F   F   F
  7.0132296114152233  7.0132296114152233  7.5000000000000000   F   F   F
  0.0000000000000000  0.0000000000000000  9.4836408864999999   F   F   F
  2.8052918445660895  0.0000000000000000  9.4836408864999999   F   F   F
  5.6105836891321790  0.0000000000000000  9.4836408864999999   F   F   F
  0.0000000000000000  2.8052918445660895  9.4836408864999999   F   F   F
  2.8052918445660895  2.8052918445660895  9.4836408864999999   F   F   F
  5.6105836891321790  2.8052918445660895  9.4836408864999999   F   F   F
  0.0000000000000000  5.6105836891321790  9.4836408864999999   F   F   F
  2.8052918445660895  5.6105836891321790  9.4836408864999999   F   F   F
  5.6105836891321790  5.6105836891321790  9.4836408864999999   F   F   F
  1.4026459222830447  1.4026459222830447 11.4672817729999998   F   F   F
  4.2079377668491347  1.4026459222830447 11.4672817729999998   F   F   F
  7.0132296114152233  1.4026459222830447 11.4672817729999998   F   F   F
  1.4026459222830447  4.2079377668491347 11.4672817729999998   F   F   F
  4.2079377668491347  4.2079377668491347 11.4672817729999998   F   F   F
  7.0132296114152233  4.2079377668491347 11.4672817729999998   F   F   F
  1.4026459222830447  7.0132296114152233 11.4672817729999998   F   F   F
  4.2079377668491347  7.0132296114152233 11.4672817729999998   F   F   F
  7.0132296114152233  7.0132296114152233 11.4672817729999998   F   F   F
  0.0000000000000000  0.0000000000000000 13.4509226595000015   F   F   F
  2.8052918445660895  0.0000000000000000 13.4509226595000015   F   F   F
  5.6105836891321790  0.0000000000000000 13.4509226595000015   F   F   F
  0.0000000000000000  2.8052918445660895 13.4509226595000015   F   F   F
  2.8052918445660895  2.8052918445660895 13.4509226595000015   F   F   F
  5.6105836891321790  2.8052918445660895 13.4509226595000015   F   F   F
  0.0000000000000000  5.6105836891321790 13.4509226595000015   F   F   F
  2.8052918445660895  5.6105836891321790 13.4509226595000015   F   F   F
  5.6105836891321790  5.6105836891321790 13.4509226595000015   F   F   F
  1.4193925469751252  1.4264378414769425 15.4798578166120233   T   T   T
  4.1857077248261909  1.4204676605582032 15.4714673270801519   T   T   T
  7.0100727325351153  1.3926454042365402 15.4254421598396743   T   T   T
  1.4185109568873771  4.2051963995028609 15.4815969082348897   T   T   T
  4.1728461113144037  4.2060241264776632 15.4868317711359964   T   T   T
  7.0061094849532495  4.2068839591105078 15.4258174194021596   T   T   T
  1.4198294429421743  6.9825495097000330 15.4817592577259955   T   T   T
  4.1866494058696038  6.9904080488550617 15.4721673407693654   T   T   T
  7.0104872611016784  7.0194025457353160 15.4259992731958597   T   T   T
 -0.0263095053401218 -0.0030772762789386 17.4017949882797396   T   T   T
  2.8000384501324991 -0.0054870390534452 17.4055833413531893   T   T   T
  5.6172490236689772 -0.0028203336912489 17.3988514510698522   T   T   T
 -0.0470536481545127  2.8018288126178716 17.3927077739881675   T   T   T
  2.7573962963061271  2.7440650586246065 17.5668765301942571   T   T   T
  5.6250093542628816  2.8012826869274261 17.3815003949294749   T   T   T
 -0.0473318791938400  5.6071324257454851 17.3943730715273759   T   T   T
  2.7555324318155168  5.6575566711270930 17.5703482906753088   T   T   T
  5.6248193532087916  5.6089807525432036 17.3826025394320567   T   T   T
  2.9778784002150887  4.1914895966160168 20.2940024758445468   T   T   T
  3.1114872789186032  4.1881991452304828 21.5137903950752367   T   T   T
  2.9017666884238205  3.0435501037710653 19.6623734013919105   T   T   T
  2.9118831955445561  5.3418795481575074 19.6660725070139542   T   T   T
