Ag  N  O 
 1.0000000000000000
     8.7962652734892650    0.0000000000000000    0.0000000000000000
     0.0000000000000000    8.7962652734892650    0.0000000000000000
     0.0000000000000000    0.0000000000000000   25.3664980399999997
 Ag  N   O  
  54   1   3
Selective dynamics
Cartesian
  1.4660442122482107  1.4660442122482107  7.5000000000000000   F   F   F
  4.3981326367446325  1.4660442122482107  7.5000000000000000   F   F   F
  7.3302210612410530  1.4660442122482107  7.5000000000000000   F   F   F
  1.4660442122482107  4.3981326367446325  7.5000000000000000   F   F   F
  4.3981326367446325  4.3981326367446325  7.5000000000000000   F   F   F
  7.3302210612410530  4.3981326367446325  7.5000000000000000   F   F   F
  1.4660442122482107  7.3302210612410530  7.5000000000000000   F   F   F
  4.3981326367446325  7.3302210612410530  7.5000000000000000   F   F   F
  7.3302210612410530  7.3302210612410530  7.5000000000000000   F   F   F
  0.0000000000000000  0.0000000000000000  9.5732996079999992   F   F   F
  2.9320884244964214  0.0000000000000000  9.5732996079999992   F   F   F
  5.8641768489928427  0.0000000000000000  9.5732996079999992   F   F   F
  0.0000000000000000  2.9320884244964214  9.5732996079999992   F   F   F
  2.9320884244964214  2.9320884244964214  9.5732996079999992   F   F   F
  5.8641768489928427  2.9320884244964214  9.5732996079999992   F   F   F
  0.0000000000000000  5.8641768489928427  9.5732996079999992   F   F   F
  2.9320884244964214  5.8641768489928427  9.5732996079999992   F   F   F
  5.8641768489928427  5.8641768489928427  9.5732996079999992   F   F   F
  1.4660442122482107  1.4660442122482107 11.6465992160000003   F   F   F
  4.3981326367446325  1.4660442122482107 11.6465992160000003   F   F   F
  7.3302210612410530  1.4660442122482107 11.6465992160000003   F   F   F
  1.4660442122482107  4.3981326367446325 11.6465992160000003   F   F   F
  4.3981326367446325  4.3981326367446325 11.6465992160000003   F   F   F
  7.3302210612410530  4.3981326367446325 11.6465992160000003   F   F   F
  1.4660442122482107  7.3302210612410530 11.6465992160000003   F   F   F
  4.3981326367446325  7.3302210612410530 11.6465992160000003   F   F   F
  7.3302210612410530  7.3302210612410530 11.6465992160000003   F   F   F
  0.0000000000000000  0.0000000000000000 13.7198988240000013   F   F   F
  2.9320884244964214  0.0000000000000000 13.7198988240000013   F   F   F
  5.8641768489928427  0.0000000000000000 13.7198988240000013   F   F   F
  0.0000000000000000  2.9320884244964214 13.7198988240000013   F   F   F
  2.9320884244964214  2.9320884244964214 13.7198988240000013   F   F   F
  5.8641768489928427  2.9320884244964214 13.7198988240000013   F   F   F
  0.0000000000000000  5.8641768489928427 13.7198988240000013   F   F   F
  2.9320884244964214  5.8641768489928427 13.7198988240000013   F   F   F
  5.8641768489928427  5.8641768489928427 13.7198988240000013   F   F   F
  1.4805303309344731  1.4782926067068960 15.8902786095922295   T   T   T
  4.3975613040385788  1.4781918257609230 15.8898610226763228   T   T   T
  7.3399672335693538  1.4594256805789094 15.8631260684615150   T   T   T
  1.4898817872047221  4.3996721267731029 15.8948272811861155   T   T   T
  4.4005992041191000  4.3996089321274221 15.8947275841981650   T   T   T
  7.3427010684976555  4.3978697237225770 15.8701407107363046   T   T   T
  1.4798024267576342  7.3215236799738106 15.8899703781056072   T   T   T
  4.3966411147862701  7.3214734388492024 15.8885151845288579   T   T   T
  7.3387832555649286  7.3373257253958446 15.8630862222857392   T   T   T
  0.0005430173343559  0.0004026024035508 17.9861962596413250   T   T   T
  2.9331443731389828  0.0048947923439312 17.9684982090118943   T   T   T
  5.8737567671310735  0.0007147958555795 17.9782061996679801   T   T   T
 -0.0047584465000043  2.9264454146563197 17.9750513652353732   T   T   T
  2.9373496757972783  2.9267199128218087 18.0372373817799172   T   T   T
  5.9096212206257581  2.9219531312430189 17.9678810729591660   T   T   T
 -0.0071107963112184  5.8704615814822629 17.9735773159138326   T   T   T
  2.9341161762406784  5.8784999334973858 18.0330175759725506   T   T   T
  5.9080263678584775  5.8750724140060573 17.9671072134042262   T   T   T
  3.3254118337642016  4.4295588422713825 20.9815020165016755   T   T   T
  3.4508263659725817  4.4346127241682369 22.2148641048873685   T   T   T
  3.2572513414409152  3.3012254689204972 20.3413859850661360   T   T   T
  3.2700033188794118  5.5553578883553136 20.3330639263230353   T   T   T
