Ir  N  O 
 1.0000000000000000
     8.2153868178891649    0.0000000000000000    0.0000000000000000
     0.0000000000000000    8.2153868178891649    0.0000000000000000
     0.0000000000000000    0.0000000000000000   24.6819262150000007
 Ir  N   O  
  54   1   3
Selective dynamics
Cartesian
  1.3692311363148608  1.3692311363148608  7.5000000000000000   F   F   F
  4.1076934089445825  1.3692311363148608  7.5000000000000000   F   F   F
  6.8461556815743041  1.3692311363148608  7.5000000000000000   F   F   F
  1.3692311363148608  4.1076934089445825  7.5000000000000000   F   F   F
  4.1076934089445825  4.1076934089445825  7.5000000000000000   F   F   F
  6.8461556815743041  4.1076934089445825  7.5000000000000000   F   F   F
  1.3692311363148608  6.8461556815743041  7.5000000000000000   F   F   F
  4.1076934089445825  6.8461556815743041  7.5000000000000000   F   F   F
  6.8461556815743041  6.8461556815743041  7.5000000000000000   F   F   F
  0.0000000000000000  0.0000000000000000  9.4363852430000001   F   F   F
  2.7384622726297216  0.0000000000000000  9.4363852430000001   F   F   F
  5.4769245452594433  0.0000000000000000  9.4363852430000001   F   F   F
  0.0000000000000000  2.7384622726297216  9.4363852430000001   F   F   F
  2.7384622726297216  2.7384622726297216  9.4363852430000001   F   F   F
  5.4769245452594433  2.7384622726297216  9.4363852430000001   F   F   F
  0.0000000000000000  5.4769245452594433  9.4363852430000001   F   F   F
  2.7384622726297216  5.4769245452594433  9.4363852430000001   F   F   F
  5.4769245452594433  5.4769245452594433  9.4363852430000001   F   F   F
  1.3692311363148608  1.3692311363148608 11.3727704860000003   F   F   F
  4.1076934089445825  1.3692311363148608 11.3727704860000003   F   F   F
  6.8461556815743041  1.3692311363148608 11.3727704860000003   F   F   F
  1.3692311363148608  4.1076934089445825 11.3727704860000003   F   F   F
  4.1076934089445825  4.1076934089445825 11.3727704860000003   F   F   F
  6.8461556815743041  4.1076934089445825 11.3727704860000003   F   F   F
  1.3692311363148608  6.8461556815743041 11.3727704860000003   F   F   F
  4.1076934089445825  6.8461556815743041 11.3727704860000003   F   F   F
  6.8461556815743041  6.8461556815743041 11.3727704860000003   F   F   F
  0.0000000000000000  0.0000000000000000 13.3091557290000004   F   F   F
  2.7384622726297216  0.0000000000000000 13.3091557290000004   F   F   F
  5.4769245452594433  0.0000000000000000 13.3091557290000004   F   F   F
  0.0000000000000000  2.7384622726297216 13.3091557290000004   F   F   F
  2.7384622726297216  2.7384622726297216 13.3091557290000004   F   F   F
  5.4769245452594433  2.7384622726297216 13.3091557290000004   F   F   F
  0.0000000000000000  5.4769245452594433 13.3091557290000004   F   F   F
  2.7384622726297216  5.4769245452594433 13.3091557290000004   F   F   F
  5.4769245452594433  5.4769245452594433 13.3091557290000004   F   F   F
  1.3841480565202553  1.3803537869288487 15.2848074089821289   T   T   T
  4.0958971840158753  1.3801797338536159 15.2839916190166374   T   T   T
  6.8476765745715387  1.3653155993376027 15.2410856821936509   T   T   T
  1.3843403837335484  4.1064665655519770 15.2881798682702001   T   T   T
  4.0976306275763399  4.1066152298133849 15.2868117243890183   T   T   T
  6.8480086579627573  4.1073633613804805 15.2456909155637668   T   T   T
  1.3853757742912460  6.8306897031618448 15.2869714084678616   T   T   T
  4.0951010957454370  6.8311066630533075 15.2861816044087053   T   T   T
  6.8479990791847722  6.8486279234858003 15.2416733547320824   T   T   T
 -0.0146090118558618 -0.0008343386529901 17.1136448906760776   T   T   T
  2.7402015229355396 -0.0022932755370446 17.1149891323374312   T   T   T
  5.4948673268270873 -0.0005856229617802 17.1129336905173304   T   T   T
 -0.0300360449827934  2.7327797700621281 17.1048456602980288   T   T   T
  2.7402414712400986  2.7020209870421992 17.2007571838514401   T   T   T
  5.5120013910164269  2.7329855913644998 17.1038125289721954   T   T   T
 -0.0297643209551696  5.4801828599921176 17.1061258050482685   T   T   T
  2.7410539339108921  5.5052766955281047 17.2062534137952916   T   T   T
  5.5124318940609554  5.4802295007621549 17.1052060596560445   T   T   T
  2.7903659842576425  4.0805796291056771 19.9454184616256640   T   T   T
  2.8304305366631577  4.0728952794433049 21.1680856711941239   T   T   T
  2.7674437533368059  2.9356818692148181 19.2930776016823486   T   T   T
  2.7678459870021914  5.2294306079360080 19.3032158273970893   T   T   T
