Pd  N  O 
 1.0000000000000000
     8.3586839247702081    0.0000000000000000    0.0000000000000000
     0.0000000000000000    8.3586839247702081    0.0000000000000000
     0.0000000000000000    0.0000000000000000   24.8508034749999993
 Pd  N   O  
  54   1   3
Selective dynamics
Cartesian
  1.3931139874617013  1.3931139874617013  7.5000000000000000   F   F   F
  4.1793419623851040  1.3931139874617013  7.5000000000000000   F   F   F
  6.9655699373085067  1.3931139874617013  7.5000000000000000   F   F   F
  1.3931139874617013  4.1793419623851040  7.5000000000000000   F   F   F
  4.1793419623851040  4.1793419623851040  7.5000000000000000   F   F   F
  6.9655699373085067  4.1793419623851040  7.5000000000000000   F   F   F
  1.3931139874617013  6.9655699373085067  7.5000000000000000   F   F   F
  4.1793419623851040  6.9655699373085067  7.5000000000000000   F   F   F
  6.9655699373085067  6.9655699373085067  7.5000000000000000   F   F   F
  0.0000000000000000  0.0000000000000000  9.4701606950000006   F   F   F
  2.7862279749234027  0.0000000000000000  9.4701606950000006   F   F   F
  5.5724559498468054  0.0000000000000000  9.4701606950000006   F   F   F
  0.0000000000000000  2.7862279749234027  9.4701606950000006   F   F   F
  2.7862279749234027  2.7862279749234027  9.4701606950000006   F   F   F
  5.5724559498468054  2.7862279749234027  9.4701606950000006   F   F   F
  0.0000000000000000  5.5724559498468054  9.4701606950000006   F   F   F
  2.7862279749234027  5.5724559498468054  9.4701606950000006   F   F   F
  5.5724559498468054  5.5724559498468054  9.4701606950000006   F   F   F
  1.3931139874617013  1.3931139874617013 11.4403213899999994   F   F   F
  4.1793419623851040  1.3931139874617013 11.4403213899999994   F   F   F
  6.9655699373085067  1.3931139874617013 11.4403213899999994   F   F   F
  1.3931139874617013  4.1793419623851040 11.4403213899999994   F   F   F
  4.1793419623851040  4.1793419623851040 11.4403213899999994   F   F   F
  6.9655699373085067  4.1793419623851040 11.4403213899999994   F   F   F
  1.3931139874617013  6.9655699373085067 11.4403213899999994   F   F   F
  4.1793419623851040  6.9655699373085067 11.4403213899999994   F   F   F
  6.9655699373085067  6.9655699373085067 11.4403213899999994   F   F   F
  0.0000000000000000  0.0000000000000000 13.4104820849999999   F   F   F
  2.7862279749234027  0.0000000000000000 13.4104820849999999   F   F   F
  5.5724559498468054  0.0000000000000000 13.4104820849999999   F   F   F
  0.0000000000000000  2.7862279749234027 13.4104820849999999   F   F   F
  2.7862279749234027  2.7862279749234027 13.4104820849999999   F   F   F
  5.5724559498468054  2.7862279749234027 13.4104820849999999   F   F   F
  0.0000000000000000  5.5724559498468054 13.4104820849999999   F   F   F
  2.7862279749234027  5.5724559498468054 13.4104820849999999   F   F   F
  5.5724559498468054  5.5724559498468054 13.4104820849999999   F   F   F
  1.4142184836752878  1.4115328424617151 15.4402711951870035   T   T   T
  4.1726723799580361  1.4069202449418676 15.4325017843097658   T   T   T
  6.9712666411170323  1.3896170634792950 15.4060864902129744   T   T   T
  1.4094254863349218  4.1821483196256928 15.4391874345984625   T   T   T
  4.1665172322096291  4.1823095117437106 15.4368521338444769   T   T   T
  6.9681259834917375  4.1804424188656419 15.4010977140268608   T   T   T
  1.4134633414646425  6.9534271321850607 15.4383835863266086   T   T   T
  4.1735487386079919  6.9600311894092775 15.4295499399887319   T   T   T
  6.9707703054397854  6.9713288647377682 15.4059679184278053   T   T   T
  0.0014386312160822  0.0024157723327018 17.4142288176207813   T   T   T
  2.7994724358436405  0.0073740461483266 17.4115432160438637   T   T   T
  5.5903792117977407  0.0030450212530300 17.4137196516319399   T   T   T
 -0.0189875378804658  2.7878950434746534 17.4019531091516875   T   T   T
  2.7783815075980254  2.7778758102406429 17.5277292172224648   T   T   T
  5.5973448351383537  2.7861653468819010 17.3949038752013507   T   T   T
 -0.0211431595477722  5.5758512157880551 17.4013994547031317   T   T   T
  2.7726163823343208  5.6002562590639515 17.5190908604891789   T   T   T
  5.5951707393381467  5.5781977006659309 17.3939743483149734   T   T   T
  3.0987476374860803  4.2204741460009512 20.2880955154452636   T   T   T
  3.2768612586970205  4.2302475740903853 21.5085343970978400   T   T   T
  2.9941531565308592  3.0826275935698875 19.6628463667928628   T   T   T
  3.0196128498680506  5.3529712422232150 19.6458575213145927   T   T   T
