Cu  N  O 
 1.0000000000000000
     7.7122337857502483    0.0000000000000000    0.0000000000000000
     0.0000000000000000    7.7122337857502483    0.0000000000000000
     0.0000000000000000    0.0000000000000000   24.0889546800000005
 Cu  N   O  
  54   1   3
Selective dynamics
Cartesian
  1.2853722976250412  1.2853722976250412  7.5000000000000000   F   F   F
  3.8561168928751237  1.2853722976250412  7.5000000000000000   F   F   F
  6.4268614881252066  1.2853722976250412  7.5000000000000000   F   F   F
  1.2853722976250412  3.8561168928751237  7.5000000000000000   F   F   F
  3.8561168928751237  3.8561168928751237  7.5000000000000000   F   F   F
  6.4268614881252066  3.8561168928751237  7.5000000000000000   F   F   F
  1.2853722976250412  6.4268614881252066  7.5000000000000000   F   F   F
  3.8561168928751237  6.4268614881252066  7.5000000000000000   F   F   F
  6.4268614881252066  6.4268614881252066  7.5000000000000000   F   F   F
  0.0000000000000000  0.0000000000000000  9.3177909359999997   F   F   F
  2.5707445952500825  0.0000000000000000  9.3177909359999997   F   F   F
  5.1414891905001650  0.0000000000000000  9.3177909359999997   F   F   F
  0.0000000000000000  2.5707445952500825  9.3177909359999997   F   F   F
  2.5707445952500825  2.5707445952500825  9.3177909359999997   F   F   F
  5.1414891905001650  2.5707445952500825  9.3177909359999997   F   F   F
  0.0000000000000000  5.1414891905001650  9.3177909359999997   F   F   F
  2.5707445952500825  5.1414891905001650  9.3177909359999997   F   F   F
  5.1414891905001650  5.1414891905001650  9.3177909359999997   F   F   F
  1.2853722976250412  1.2853722976250412 11.1355818719999995   F   F   F
  3.8561168928751237  1.2853722976250412 11.1355818719999995   F   F   F
  6.4268614881252066  1.2853722976250412 11.1355818719999995   F   F   F
  1.2853722976250412  3.8561168928751237 11.1355818719999995   F   F   F
  3.8561168928751237  3.8561168928751237 11.1355818719999995   F   F   F
  6.4268614881252066  3.8561168928751237 11.1355818719999995   F   F   F
  1.2853722976250412  6.4268614881252066 11.1355818719999995   F   F   F
  3.8561168928751237  6.4268614881252066 11.1355818719999995   F   F   F
  6.4268614881252066  6.4268614881252066 11.1355818719999995   F   F   F
  0.0000000000000000  0.0000000000000000 12.9533728080000010   F   F   F
  2.5707445952500825  0.0000000000000000 12.9533728080000010   F   F   F
  5.1414891905001650  0.0000000000000000 12.9533728080000010   F   F   F
  0.0000000000000000  2.5707445952500825 12.9533728080000010   F   F   F
  2.5707445952500825  2.5707445952500825 12.9533728080000010   F   F   F
  5.1414891905001650  2.5707445952500825 12.9533728080000010   F   F   F
  0.0000000000000000  5.1414891905001650 12.9533728080000010   F   F   F
  2.5707445952500825  5.1414891905001650 12.9533728080000010   F   F   F
  5.1414891905001650  5.1414891905001650 12.9533728080000010   F   F   F
  1.3010232310288825  1.2901329328169113 14.8515815444890027   T   T   T
  3.8249929668270046  1.2897013539147724 14.8536314000451988   T   T   T
  6.4180670878099866  1.2894940261095182 14.8193324646656457   T   T   T
  1.2956652567820690  3.8427097595278021 14.8434536034270916   T   T   T
  3.8394803246292821  3.8410968277712860 14.8424456615769280   T   T   T
  6.4210929211269585  3.8647893123023058 14.8116851082937249   T   T   T
  1.2893590220222886  6.4500449264921418 14.8458105290966831   T   T   T
  3.8327544267521869  6.4488268237605171 14.8443232518502111   T   T   T
  6.4171270563586331  6.4225486153395313 14.8138950932428628   T   T   T
 -0.0420018253089637  0.0025092498521683 16.6190874901932233   T   T   T
  2.5549364286537890 -0.0053602742316483 16.7698590809036645   T   T   T
  5.1518486607491498 -0.0018495151958281 16.6158167935832175   T   T   T
 -0.0324233892376422  2.5792716361782069 16.6149534113442598   T   T   T
  2.5654527247271006  2.5960203581527117 16.7611993266000212   T   T   T
  5.1619116086545995  2.5771566338787397 16.6226111670858003   T   T   T
 -0.0082432051034821  5.1458278112696432 16.6221686197459100   T   T   T
  2.5668683586149221  5.1504109346245155 16.6126266231726767   T   T   T
  5.1398694595434531  5.1426096839969775 16.6261894611533947   T   T   T
  2.5748494202674461  1.3111032466206478 19.4632623211176039   T   T   T
  2.5122415442494623  0.1806517504453848 18.8117598554579111   T   T   T
  2.6284798813051502  2.4356130256981641 18.7986663618090120   T   T   T
  2.5857349940392567  1.3197964615433206 20.6948952966769397   T   T   T
