Rh  N  O 
 1.0000000000000000
     8.1252569843256168    0.0000000000000000    0.0000000000000000
     0.0000000000000000    8.1252569843256168    0.0000000000000000
     0.0000000000000000    0.0000000000000000   24.5757071875000008
 Rh  N   O  
  54   1   3
Selective dynamics
Cartesian
  1.3542094973876027  1.3542094973876027  7.5000000000000000   F   F   F
  4.0626284921628084  1.3542094973876027  7.5000000000000000   F   F   F
  6.7710474869380128  1.3542094973876027  7.5000000000000000   F   F   F
  1.3542094973876027  4.0626284921628084  7.5000000000000000   F   F   F
  4.0626284921628084  4.0626284921628084  7.5000000000000000   F   F   F
  6.7710474869380128  4.0626284921628084  7.5000000000000000   F   F   F
  1.3542094973876027  6.7710474869380128  7.5000000000000000   F   F   F
  4.0626284921628084  6.7710474869380128  7.5000000000000000   F   F   F
  6.7710474869380128  6.7710474869380128  7.5000000000000000   F   F   F
  0.0000000000000000  0.0000000000000000  9.4151414375000009   F   F   F
  2.7084189947752053  0.0000000000000000  9.4151414375000009   F   F   F
  5.4168379895504106  0.0000000000000000  9.4151414375000009   F   F   F
  0.0000000000000000  2.7084189947752053  9.4151414375000009   F   F   F
  2.7084189947752053  2.7084189947752053  9.4151414375000009   F   F   F
  5.4168379895504106  2.7084189947752053  9.4151414375000009   F   F   F
  0.0000000000000000  5.4168379895504106  9.4151414375000009   F   F   F
  2.7084189947752053  5.4168379895504106  9.4151414375000009   F   F   F
  5.4168379895504106  5.4168379895504106  9.4151414375000009   F   F   F
  1.3542094973876027  1.3542094973876027 11.3302828750000000   F   F   F
  4.0626284921628084  1.3542094973876027 11.3302828750000000   F   F   F
  6.7710474869380128  1.3542094973876027 11.3302828750000000   F   F   F
  1.3542094973876027  4.0626284921628084 11.3302828750000000   F   F   F
  4.0626284921628084  4.0626284921628084 11.3302828750000000   F   F   F
  6.7710474869380128  4.0626284921628084 11.3302828750000000   F   F   F
  1.3542094973876027  6.7710474869380128 11.3302828750000000   F   F   F
  4.0626284921628084  6.7710474869380128 11.3302828750000000   F   F   F
  6.7710474869380128  6.7710474869380128 11.3302828750000000   F   F   F
  0.0000000000000000  0.0000000000000000 13.2454243124999991   F   F   F
  2.7084189947752053  0.0000000000000000 13.2454243124999991   F   F   F
  5.4168379895504106  0.0000000000000000 13.2454243124999991   F   F   F
  0.0000000000000000  2.7084189947752053 13.2454243124999991   F   F   F
  2.7084189947752053  2.7084189947752053 13.2454243124999991   F   F   F
  5.4168379895504106  2.7084189947752053 13.2454243124999991   F   F   F
  0.0000000000000000  5.4168379895504106 13.2454243124999991   F   F   F
  2.7084189947752053  5.4168379895504106 13.2454243124999991   F   F   F
  5.4168379895504106  5.4168379895504106 13.2454243124999991   F   F   F
  1.3676658980173237  1.3623312775517462 15.1949906898607239   T   T   T
  4.0510759561687513  1.3621643463131874 15.1961351428339331   T   T   T
  6.7714148668623340  1.3522728053274606 15.1663426742715473   T   T   T
  1.3626371006084117  4.0606843133078732 15.1948595720127209   T   T   T
  4.0559908691443800  4.0609930163211372 15.1960987164552961   T   T   T
  6.7712641490683527  4.0609506674979743 15.1695766460028150   T   T   T
  1.3678083678499424  6.7599018161576927 15.1944438336812357   T   T   T
  4.0512526422331199  6.7600990331698094 15.1958764358150251   T   T   T
  6.7715967707082543  6.7702399754451283 15.1657989437664469   T   T   T
 -0.0121266129144545 -0.0024912827072173 17.0325466302289783   T   T   T
  2.7087686837459817 -0.0022189195724604 17.0308074041037791   T   T   T
  5.4322121407698747 -0.0024050818113918 17.0337090174831687   T   T   T
 -0.0204641145644418  2.7006341994700396 17.0256872721430383   T   T   T
  2.7074252079695245  2.6850485458347615 17.1251799616120195   T   T   T
  5.4398731441587875  2.7008459197001584 17.0267755286289209   T   T   T
 -0.0203095640712407  5.4201014662853719 17.0252798594231578   T   T   T
  2.7080638127940868  5.4347884688973718 17.1247700459878196   T   T   T
  5.4401846909533456  5.4204505480637453 17.0263064689818684   T   T   T
  2.7356494713524286  4.0576366603399414 19.8843115038983775   T   T   T
  2.7615513200722694  4.0577415219728179 21.1130924391303516   T   T   T
  2.7251129444490418  2.9208933963320951 19.2331743074904047   T   T   T
  2.7195371847562688  5.1937937893239514 19.2328225495192342   T   T   T
