Au  N  O  H 
 1.0000000000000000
     8.8201600910041655    0.0000000000000000    0.0000000000000000
     0.0000000000000000    8.8201600910041655    0.0000000000000000
     0.0000000000000000    0.0000000000000000   25.3946583525000023
 Au  N   O   H  
  54   1   1   2
Selective dynamics
Cartesian
  1.4700266818340275  1.4700266818340275  7.5000000000000000   F   F   F
  4.4100800455020828  1.4700266818340275  7.5000000000000000   F   F   F
  7.3501334091701374  1.4700266818340275  7.5000000000000000   F   F   F
  1.4700266818340275  4.4100800455020828  7.5000000000000000   F   F   F
  4.4100800455020828  4.4100800455020828  7.5000000000000000   F   F   F
  7.3501334091701374  4.4100800455020828  7.5000000000000000   F   F   F
  1.4700266818340275  7.3501334091701374  7.5000000000000000   F   F   F
  4.4100800455020828  7.3501334091701374  7.5000000000000000   F   F   F
  7.3501334091701374  7.3501334091701374  7.5000000000000000   F   F   F
  0.0000000000000000  0.0000000000000000  9.5789316705000012   F   F   F
  2.9400533636680550  0.0000000000000000  9.5789316705000012   F   F   F
  5.8801067273361101  0.0000000000000000  9.5789316705000012   F   F   F
  0.0000000000000000  2.9400533636680550  9.5789316705000012   F   F   F
  2.9400533636680550  2.9400533636680550  9.5789316705000012   F   F   F
  5.8801067273361101  2.9400533636680550  9.5789316705000012   F   F   F
  0.0000000000000000  5.8801067273361101  9.5789316705000012   F   F   F
  2.9400533636680550  5.8801067273361101  9.5789316705000012   F   F   F
  5.8801067273361101  5.8801067273361101  9.5789316705000012   F   F   F
  1.4700266818340275  1.4700266818340275 11.6578633410000005   F   F   F
  4.4100800455020828  1.4700266818340275 11.6578633410000005   F   F   F
  7.3501334091701374  1.4700266818340275 11.6578633410000005   F   F   F
  1.4700266818340275  4.4100800455020828 11.6578633410000005   F   F   F
  4.4100800455020828  4.4100800455020828 11.6578633410000005   F   F   F
  7.3501334091701374  4.4100800455020828 11.6578633410000005   F   F   F
  1.4700266818340275  7.3501334091701374 11.6578633410000005   F   F   F
  4.4100800455020828  7.3501334091701374 11.6578633410000005   F   F   F
  7.3501334091701374  7.3501334091701374 11.6578633410000005   F   F   F
  0.0000000000000000  0.0000000000000000 13.7367950114999999   F   F   F
  2.9400533636680550  0.0000000000000000 13.7367950114999999   F   F   F
  5.8801067273361101  0.0000000000000000 13.7367950114999999   F   F   F
  0.0000000000000000  2.9400533636680550 13.7367950114999999   F   F   F
  2.9400533636680550  2.9400533636680550 13.7367950114999999   F   F   F
  5.8801067273361101  2.9400533636680550 13.7367950114999999   F   F   F
  0.0000000000000000  5.8801067273361101 13.7367950114999999   F   F   F
  2.9400533636680550  5.8801067273361101 13.7367950114999999   F   F   F
  5.8801067273361101  5.8801067273361101 13.7367950114999999   F   F   F
  1.4874641350196027  1.4841356977618496 15.8795298215443896   T   T   T
  4.4106905878568581  1.4968650074022023 15.9062008318266113   T   T   T
  7.3282495993665435  1.4898201578834851 15.8837627968305188   T   T   T
  1.4893709593751090  4.3886347699467922 15.8797949238931491   T   T   T
  4.4132572042822948  4.3803089877684718 15.9074744914549431   T   T   T
  7.3309755354778527  4.3915684036277698 15.8827811578884912   T   T   T
  1.4611702878739388  7.3472411772407744 15.8394048890804662   T   T   T
  4.4116152729587519  7.3490109508372079 15.8383771724921374   T   T   T
  7.3643031126612026  7.3513658823264354 15.8294338403668906   T   T   T
 -0.0006550949727473 -0.0139424015515536 17.9669173169018492   T   T   T
  2.9352825934395228 -0.0460392042195981 17.9479226343818787   T   T   T
  5.8944588952054939 -0.0430023986026374 17.9450980998623848   T   T   T
 -0.0133448815647767  2.9376882650092471 17.9824320805247524   T   T   T
  2.8131229882859152  2.9301680033625184 18.0514096818390612   T   T   T
  5.9876547633372850  2.9311929397438727 18.0829625665169118   T   T   T
  0.0015451595594433  5.8899177976625792 17.9658647201522257   T   T   T
  2.9371172203284441  5.9179509057179747 17.9450068429746672   T   T   T
  5.8980831524859374  5.9198258457029773 17.9421622571331554   T   T   T
  4.9883558362439011  2.9738862714435870 20.1599353658445430   T   T   T
  3.5890235604867486  2.9547316145362075 20.1265893198375068   T   T   T
  5.2941732184277157  3.8287760715115176 20.6401445807282933   T   T   T
  5.3158713929050583  2.1567672314319233 20.6906650799235940   T   T   T
