Pd  N  O  H 
 1.0000000000000000
     8.3586839247702081    0.0000000000000000    0.0000000000000000
     0.0000000000000000    8.3586839247702081    0.0000000000000000
     0.0000000000000000    0.0000000000000000   24.8508034749999993
 Pd  N   O   H  
  54   1   1   2
Selective dynamics
Cartesian
  1.3931139874617013  1.3931139874617013  7.5000000000000000   F   F   F
  4.1793419623851040  1.3931139874617013  7.5000000000000000   F   F   F
  6.9655699373085067  1.3931139874617013  7.5000000000000000   F   F   F
  1.3931139874617013  4.1793419623851040  7.5000000000000000   F   F   F
  4.1793419623851040  4.1793419623851040  7.5000000000000000   F   F   F
  6.9655699373085067  4.1793419623851040  7.5000000000000000   F   F   F
  1.3931139874617013  6.9655699373085067  7.5000000000000000   F   F   F
  4.1793419623851040  6.9655699373085067  7.5000000000000000   F   F   F
  6.9655699373085067  6.9655699373085067  7.5000000000000000   F   F   F
  0.0000000000000000  0.0000000000000000  9.4701606950000006   F   F   F
  2.7862279749234027  0.0000000000000000  9.4701606950000006   F   F   F
  5.5724559498468054  0.0000000000000000  9.4701606950000006   F   F   F
  0.0000000000000000  2.7862279749234027  9.4701606950000006   F   F   F
  2.7862279749234027  2.7862279749234027  9.4701606950000006   F   F   F
  5.5724559498468054  2.7862279749234027  9.4701606950000006   F   F   F
  0.0000000000000000  5.5724559498468054  9.4701606950000006   F   F   F
  2.7862279749234027  5.5724559498468054  9.4701606950000006   F   F   F
  5.5724559498468054  5.5724559498468054  9.4701606950000006   F   F   F
  1.3931139874617013  1.3931139874617013 11.4403213899999994   F   F   F
  4.1793419623851040  1.3931139874617013 11.4403213899999994   F   F   F
  6.9655699373085067  1.3931139874617013 11.4403213899999994   F   F   F
  1.3931139874617013  4.1793419623851040 11.4403213899999994   F   F   F
  4.1793419623851040  4.1793419623851040 11.4403213899999994   F   F   F
  6.9655699373085067  4.1793419623851040 11.4403213899999994   F   F   F
  1.3931139874617013  6.9655699373085067 11.4403213899999994   F   F   F
  4.1793419623851040  6.9655699373085067 11.4403213899999994   F   F   F
  6.9655699373085067  6.9655699373085067 11.4403213899999994   F   F   F
  0.0000000000000000  0.0000000000000000 13.4104820849999999   F   F   F
  2.7862279749234027  0.0000000000000000 13.4104820849999999   F   F   F
  5.5724559498468054  0.0000000000000000 13.4104820849999999   F   F   F
  0.0000000000000000  2.7862279749234027 13.4104820849999999   F   F   F
  2.7862279749234027  2.7862279749234027 13.4104820849999999   F   F   F
  5.5724559498468054  2.7862279749234027 13.4104820849999999   F   F   F
  0.0000000000000000  5.5724559498468054 13.4104820849999999   F   F   F
  2.7862279749234027  5.5724559498468054 13.4104820849999999   F   F   F
  5.5724559498468054  5.5724559498468054 13.4104820849999999   F   F   F
  1.3892456480888542  1.3956080069694614 15.4094700267042786   T   T   T
  4.1772774478575823  1.3923156639293277 15.4036910896726180   T   T   T
  6.9736620688850559  1.3931498543207279 15.4047864363725946   T   T   T
  1.4057406891176352  4.1993107386595607 15.4546300178542566   T   T   T
  4.1768573646871721  4.1913179129871772 15.4402479363545755   T   T   T
  6.9505822955378598  4.1975023712180279 15.4464656880915037   T   T   T
  1.4037557350014793  6.9470220463756700 15.4498582187970559   T   T   T
  4.1759144197022406  6.9475722207280102 15.4395880861756538   T   T   T
  6.9486915507842539  6.9438639658974894 15.4450770055813589   T   T   T
 -0.0038220711307902  0.0114140168952722 17.4224664765359982   T   T   T
  2.7861939506988094  0.0195992705063016 17.4014048698122004   T   T   T
  5.5753313035512528  0.0179739898897200 17.3950269966622066   T   T   T
 -0.0024403568906956  2.7725717651981943 17.4277156390749219   T   T   T
  2.7873780071164118  2.7653504931605242 17.4053513285979236   T   T   T
  5.5766859591715265  2.7626131695145917 17.3954194738399082   T   T   T
 -0.0173300433212519  5.5715254394275888 17.4362130530000989   T   T   T
  2.7552669873510331  5.5711498850370376 17.5735311587883558   T   T   T
  5.5780875312014961  5.5678092155739680 17.5738086544528969   T   T   T
  4.7952372560456000  5.5696083018943776 19.5537341483611797   T   T   T
  3.4044488730296552  5.5977131193142888 19.5425160098952162   T   T   T
  5.1501665487099642  6.4044511997095803 20.0395388185230949   T   T   T
  5.1152514644800453  4.7161587699372012 20.0301524241501987   T   T   T
