Ni  N  O  H 
 1.0000000000000000
     7.4637869660136236    0.0000000000000000    0.0000000000000000
     0.0000000000000000    7.4637869660136236    0.0000000000000000
     0.0000000000000000    0.0000000000000000   23.7961572950000004
 Ni  N   O   H  
  54   1   1   2
Selective dynamics
Cartesian
  1.2439644943356039  1.2439644943356039  7.5000000000000009   F   F   F
  3.7318934830068118  1.2439644943356039  7.5000000000000009   F   F   F
  6.2198224716780190  1.2439644943356039  7.5000000000000009   F   F   F
  1.2439644943356039  3.7318934830068118  7.5000000000000009   F   F   F
  3.7318934830068118  3.7318934830068118  7.5000000000000009   F   F   F
  6.2198224716780190  3.7318934830068118  7.5000000000000009   F   F   F
  1.2439644943356039  6.2198224716780190  7.5000000000000009   F   F   F
  3.7318934830068118  6.2198224716780190  7.5000000000000009   F   F   F
  6.2198224716780190  6.2198224716780190  7.5000000000000009   F   F   F
  0.0000000000000000  0.0000000000000000  9.2592314590000004   F   F   F
  2.4879289886712077  0.0000000000000000  9.2592314590000004   F   F   F
  4.9758579773424154  0.0000000000000000  9.2592314590000004   F   F   F
  0.0000000000000000  2.4879289886712077  9.2592314590000004   F   F   F
  2.4879289886712077  2.4879289886712077  9.2592314590000004   F   F   F
  4.9758579773424154  2.4879289886712077  9.2592314590000004   F   F   F
  0.0000000000000000  4.9758579773424154  9.2592314590000004   F   F   F
  2.4879289886712077  4.9758579773424154  9.2592314590000004   F   F   F
  4.9758579773424154  4.9758579773424154  9.2592314590000004   F   F   F
  1.2439644943356039  1.2439644943356039 11.0184629180000009   F   F   F
  3.7318934830068118  1.2439644943356039 11.0184629180000009   F   F   F
  6.2198224716780190  1.2439644943356039 11.0184629180000009   F   F   F
  1.2439644943356039  3.7318934830068118 11.0184629180000009   F   F   F
  3.7318934830068118  3.7318934830068118 11.0184629180000009   F   F   F
  6.2198224716780190  3.7318934830068118 11.0184629180000009   F   F   F
  1.2439644943356039  6.2198224716780190 11.0184629180000009   F   F   F
  3.7318934830068118  6.2198224716780190 11.0184629180000009   F   F   F
  6.2198224716780190  6.2198224716780190 11.0184629180000009   F   F   F
  0.0000000000000000  0.0000000000000000 12.7776943769999995   F   F   F
  2.4879289886712077  0.0000000000000000 12.7776943769999995   F   F   F
  4.9758579773424154  0.0000000000000000 12.7776943769999995   F   F   F
  0.0000000000000000  2.4879289886712077 12.7776943769999995   F   F   F
  2.4879289886712077  2.4879289886712077 12.7776943769999995   F   F   F
  4.9758579773424154  2.4879289886712077 12.7776943769999995   F   F   F
  0.0000000000000000  4.9758579773424154 12.7776943769999995   F   F   F
  2.4879289886712077  4.9758579773424154 12.7776943769999995   F   F   F
  4.9758579773424154  4.9758579773424154 12.7776943769999995   F   F   F
  1.2730722751261347  1.2736463348210350 14.6010464227435008   T   T   T
  3.7272979187739828  1.2490475778323011 14.5766866862926818   T   T   T
  6.2406203558412994  1.2178133292008422 14.5518263395863752   T   T   T
  1.2547840803346697  3.7402983701457373 14.5885333058415938   T   T   T
  3.7295407462880874  3.7385085160339226 14.5974826925423908   T   T   T
  6.2128767448530899  3.7324981403725581 14.5697917788298525   T   T   T
  1.2392176156543011  6.2259563877110766 14.5858029793563446   T   T   T
  3.7200896763839642  6.2007817611748290 14.5990579380373084   T   T   T
  6.1836402385158182  6.1889441387624400 14.5980176218629047   T   T   T
 -0.0039575657061708  0.0017953379029517 16.3062248785407107   T   T   T
  2.4896828830853255  0.0430758913468311 16.3074689704673119   T   T   T
  4.9727698861592335 -0.0173715242566097 16.3029461654618757   T   T   T
  0.0102131712438932  2.4832697598183100 16.2916064664823637   T   T   T
  2.5438948947317290  2.5200083678497203 16.4666288072722473   T   T   T
  5.0397478736605814  2.4165116378749518 16.2449153610558454   T   T   T
 -0.0454287841369283  4.9740388665376924 16.2933032484706573   T   T   T
  2.3885353939711318  5.0594131080566189 16.4039190641345805   T   T   T
  4.9751078611950241  4.9299400892549370 16.4858644163614869   T   T   T
  4.1811793183930002  4.3289189932428744 18.2453703748077594   T   T   T
  2.7856232297857657  3.9227793156162329 17.9561230598571733   T   T   T
  4.0876596603615818  5.0850669125982639 18.9372686895776710   T   T   T
  4.6148284450854726  3.5287784193600298 18.7260509238512611   T   T   T
