Ag  N  O  H 
 1.0000000000000000
     8.7962652734892650    0.0000000000000000    0.0000000000000000
     0.0000000000000000    8.7962652734892650    0.0000000000000000
     0.0000000000000000    0.0000000000000000   25.3664980399999997
 Ag  N   O   H  
  54   1   1   2
Selective dynamics
Cartesian
  1.4660442122482107  1.4660442122482107  7.5000000000000000   F   F   F
  4.3981326367446325  1.4660442122482107  7.5000000000000000   F   F   F
  7.3302210612410530  1.4660442122482107  7.5000000000000000   F   F   F
  1.4660442122482107  4.3981326367446325  7.5000000000000000   F   F   F
  4.3981326367446325  4.3981326367446325  7.5000000000000000   F   F   F
  7.3302210612410530  4.3981326367446325  7.5000000000000000   F   F   F
  1.4660442122482107  7.3302210612410530  7.5000000000000000   F   F   F
  4.3981326367446325  7.3302210612410530  7.5000000000000000   F   F   F
  7.3302210612410530  7.3302210612410530  7.5000000000000000   F   F   F
  0.0000000000000000  0.0000000000000000  9.5732996079999992   F   F   F
  2.9320884244964214  0.0000000000000000  9.5732996079999992   F   F   F
  5.8641768489928427  0.0000000000000000  9.5732996079999992   F   F   F
  0.0000000000000000  2.9320884244964214  9.5732996079999992   F   F   F
  2.9320884244964214  2.9320884244964214  9.5732996079999992   F   F   F
  5.8641768489928427  2.9320884244964214  9.5732996079999992   F   F   F
  0.0000000000000000  5.8641768489928427  9.5732996079999992   F   F   F
  2.9320884244964214  5.8641768489928427  9.5732996079999992   F   F   F
  5.8641768489928427  5.8641768489928427  9.5732996079999992   F   F   F
  1.4660442122482107  1.4660442122482107 11.6465992160000003   F   F   F
  4.3981326367446325  1.4660442122482107 11.6465992160000003   F   F   F
  7.3302210612410530  1.4660442122482107 11.6465992160000003   F   F   F
  1.4660442122482107  4.3981326367446325 11.6465992160000003   F   F   F
  4.3981326367446325  4.3981326367446325 11.6465992160000003   F   F   F
  7.3302210612410530  4.3981326367446325 11.6465992160000003   F   F   F
  1.4660442122482107  7.3302210612410530 11.6465992160000003   F   F   F
  4.3981326367446325  7.3302210612410530 11.6465992160000003   F   F   F
  7.3302210612410530  7.3302210612410530 11.6465992160000003   F   F   F
  0.0000000000000000  0.0000000000000000 13.7198988240000013   F   F   F
  2.9320884244964214  0.0000000000000000 13.7198988240000013   F   F   F
  5.8641768489928427  0.0000000000000000 13.7198988240000013   F   F   F
  0.0000000000000000  2.9320884244964214 13.7198988240000013   F   F   F
  2.9320884244964214  2.9320884244964214 13.7198988240000013   F   F   F
  5.8641768489928427  2.9320884244964214 13.7198988240000013   F   F   F
  0.0000000000000000  5.8641768489928427 13.7198988240000013   F   F   F
  2.9320884244964214  5.8641768489928427 13.7198988240000013   F   F   F
  5.8641768489928427  5.8641768489928427 13.7198988240000013   F   F   F
  1.4977739847064921  1.5024220285119558 15.8890058297839456   T   T   T
  4.4092016366115718  1.4691596082828757 15.8804712328659789   T   T   T
  7.3639870184973368  1.4224685454787174 15.8420600444567476   T   T   T
  1.4779495470936053  4.4158549920863077 15.8860085833071984   T   T   T
  4.4016943151115697  4.4010412956674081 15.8915494388834659   T   T   T
  7.3229008240408753  4.3854580660362448 15.8851377518988155   T   T   T
  1.4492517316140603  7.3536307569996247 15.8720351242124149   T   T   T
  4.3807284141952705  7.3063789713906244 15.9089120886975373   T   T   T
  7.2863809175966097  7.2945607781782940 15.8931232725416187   T   T   T
 -0.0025883807728833 -0.0064863484414957 17.9907269205391813   T   T   T
  2.9309100735740254  0.0788027430906437 17.9796812874212435   T   T   T
  5.8714048450863734 -0.0588987717106771 17.9900034906346207   T   T   T
  0.0463843106817805  2.9112393228688433 17.9737526995503956   T   T   T
  3.0108878611185221  2.9636731378126604 18.0840060271257492   T   T   T
  5.9646102392442462  2.8140293653132407 17.9263493428563656   T   T   T
 -0.0684738779395656  5.8678041454117498 17.9659872834053083   T   T   T
  2.8011125340636940  5.9999266052878433 18.0053850369262634   T   T   T
  5.8572393926935407  5.7956045220849832 18.1202299606047710   T   T   T
  4.7126274528146110  5.0307297949627161 20.1389314149436345   T   T   T
  3.3517979018536721  4.6703826209350208 19.8075255412952451   T   T   T
  4.6393098722020234  5.7832964479189970 20.8376474765755617   T   T   T
  5.1177009653632508  4.2263923959801835 20.6366091376284473   T   T   T
