Rh  N  O  H 
 1.0000000000000000
     8.1252569843256168    0.0000000000000000    0.0000000000000000
     0.0000000000000000    8.1252569843256168    0.0000000000000000
     0.0000000000000000    0.0000000000000000   24.5757071875000008
 Rh  N   O   H  
  54   1   1   2
Selective dynamics
Cartesian
  1.3542094973876027  1.3542094973876027  7.5000000000000000   F   F   F
  4.0626284921628084  1.3542094973876027  7.5000000000000000   F   F   F
  6.7710474869380128  1.3542094973876027  7.5000000000000000   F   F   F
  1.3542094973876027  4.0626284921628084  7.5000000000000000   F   F   F
  4.0626284921628084  4.0626284921628084  7.5000000000000000   F   F   F
  6.7710474869380128  4.0626284921628084  7.5000000000000000   F   F   F
  1.3542094973876027  6.7710474869380128  7.5000000000000000   F   F   F
  4.0626284921628084  6.7710474869380128  7.5000000000000000   F   F   F
  6.7710474869380128  6.7710474869380128  7.5000000000000000   F   F   F
  0.0000000000000000  0.0000000000000000  9.4151414375000009   F   F   F
  2.7084189947752053  0.0000000000000000  9.4151414375000009   F   F   F
  5.4168379895504106  0.0000000000000000  9.4151414375000009   F   F   F
  0.0000000000000000  2.7084189947752053  9.4151414375000009   F   F   F
  2.7084189947752053  2.7084189947752053  9.4151414375000009   F   F   F
  5.4168379895504106  2.7084189947752053  9.4151414375000009   F   F   F
  0.0000000000000000  5.4168379895504106  9.4151414375000009   F   F   F
  2.7084189947752053  5.4168379895504106  9.4151414375000009   F   F   F
  5.4168379895504106  5.4168379895504106  9.4151414375000009   F   F   F
  1.3542094973876027  1.3542094973876027 11.3302828750000000   F   F   F
  4.0626284921628084  1.3542094973876027 11.3302828750000000   F   F   F
  6.7710474869380128  1.3542094973876027 11.3302828750000000   F   F   F
  1.3542094973876027  4.0626284921628084 11.3302828750000000   F   F   F
  4.0626284921628084  4.0626284921628084 11.3302828750000000   F   F   F
  6.7710474869380128  4.0626284921628084 11.3302828750000000   F   F   F
  1.3542094973876027  6.7710474869380128 11.3302828750000000   F   F   F
  4.0626284921628084  6.7710474869380128 11.3302828750000000   F   F   F
  6.7710474869380128  6.7710474869380128 11.3302828750000000   F   F   F
  0.0000000000000000  0.0000000000000000 13.2454243124999991   F   F   F
  2.7084189947752053  0.0000000000000000 13.2454243124999991   F   F   F
  5.4168379895504106  0.0000000000000000 13.2454243124999991   F   F   F
  0.0000000000000000  2.7084189947752053 13.2454243124999991   F   F   F
  2.7084189947752053  2.7084189947752053 13.2454243124999991   F   F   F
  5.4168379895504106  2.7084189947752053 13.2454243124999991   F   F   F
  0.0000000000000000  5.4168379895504106 13.2454243124999991   F   F   F
  2.7084189947752053  5.4168379895504106 13.2454243124999991   F   F   F
  5.4168379895504106  5.4168379895504106 13.2454243124999991   F   F   F
  1.3648468945950860  1.3717057295921768 15.2075815370320644   T   T   T
  4.0634217917364666  1.3546236876576696 15.1913011105185021   T   T   T
  6.7623556981639119  1.3681975930337746 15.1970275808063580   T   T   T
  1.3650273993224313  4.0406659216649166 15.2083864631708092   T   T   T
  4.0635416415894205  4.0585779580464232 15.1904795445998158   T   T   T
  6.7641130691456084  4.0452199999084995 15.1959647994461484   T   T   T
  1.3539439137557623  6.7693496954996197 15.1702573743152165   T   T   T
  4.0631028347254876  6.7694810009649524 15.1736062303109769   T   T   T
  6.7754076444496141  6.7695258141580767 15.1653384860007421   T   T   T
 -0.0028551890865445 -0.0150444259336262 17.0363780993316070   T   T   T
  2.7066024705626259 -0.0234482184097079 17.0311223110424663   T   T   T
  5.4276423055082894 -0.0174981724706630 17.0245021277366995   T   T   T
 -0.0103923244874684  2.7047750162662054 17.0525967248210542   T   T   T
  2.6900894466436220  2.7049426210197147 17.1464142880040207   T   T   T
  5.4357981385178622  2.7078939926118504 17.1567593636724354   T   T   T
 -0.0022824204545155  5.4253865446499363 17.0363627609970010   T   T   T
  2.7069335656074309  5.4351257963496638 17.0305594190797791   T   T   T
  5.4276159715413987  5.4305390905793711 17.0215588510185007   T   T   T
  4.6644189026932477  2.7368796272600968 19.1408248082221384   T   T   T
  3.2435404283540077  2.6997956285802815 19.1073229415454868   T   T   T
  4.9424960013495491  3.5989379105159811 19.6285366758950346   T   T   T
  4.9861548608543069  1.9232572213189099 19.6809643759914579   T   T   T
