Pt  N  O  H 
 1.0000000000000000
     8.4158755336982694    0.0000000000000000    0.0000000000000000
     0.0000000000000000    8.4158755336982694    0.0000000000000000
     0.0000000000000000    0.0000000000000000   24.9182044325000014
 Pt  N   O   H  
  54   1   1   2
Selective dynamics
Cartesian
  1.4026459222830447  1.4026459222830447  7.5000000000000000   F   F   F
  4.2079377668491347  1.4026459222830447  7.5000000000000000   F   F   F
  7.0132296114152233  1.4026459222830447  7.5000000000000000   F   F   F
  1.4026459222830447  4.2079377668491347  7.5000000000000000   F   F   F
  4.2079377668491347  4.2079377668491347  7.5000000000000000   F   F   F
  7.0132296114152233  4.2079377668491347  7.5000000000000000   F   F   F
  1.4026459222830447  7.0132296114152233  7.5000000000000000   F   F   F
  4.2079377668491347  7.0132296114152233  7.5000000000000000   F   F   F
  7.0132296114152233  7.0132296114152233  7.5000000000000000   F   F   F
  0.0000000000000000  0.0000000000000000  9.4836408864999999   F   F   F
  2.8052918445660895  0.0000000000000000  9.4836408864999999   F   F   F
  5.6105836891321790  0.0000000000000000  9.4836408864999999   F   F   F
  0.0000000000000000  2.8052918445660895  9.4836408864999999   F   F   F
  2.8052918445660895  2.8052918445660895  9.4836408864999999   F   F   F
  5.6105836891321790  2.8052918445660895  9.4836408864999999   F   F   F
  0.0000000000000000  5.6105836891321790  9.4836408864999999   F   F   F
  2.8052918445660895  5.6105836891321790  9.4836408864999999   F   F   F
  5.6105836891321790  5.6105836891321790  9.4836408864999999   F   F   F
  1.4026459222830447  1.4026459222830447 11.4672817729999998   F   F   F
  4.2079377668491347  1.4026459222830447 11.4672817729999998   F   F   F
  7.0132296114152233  1.4026459222830447 11.4672817729999998   F   F   F
  1.4026459222830447  4.2079377668491347 11.4672817729999998   F   F   F
  4.2079377668491347  4.2079377668491347 11.4672817729999998   F   F   F
  7.0132296114152233  4.2079377668491347 11.4672817729999998   F   F   F
  1.4026459222830447  7.0132296114152233 11.4672817729999998   F   F   F
  4.2079377668491347  7.0132296114152233 11.4672817729999998   F   F   F
  7.0132296114152233  7.0132296114152233 11.4672817729999998   F   F   F
  0.0000000000000000  0.0000000000000000 13.4509226595000015   F   F   F
  2.8052918445660895  0.0000000000000000 13.4509226595000015   F   F   F
  5.6105836891321790  0.0000000000000000 13.4509226595000015   F   F   F
  0.0000000000000000  2.8052918445660895 13.4509226595000015   F   F   F
  2.8052918445660895  2.8052918445660895 13.4509226595000015   F   F   F
  5.6105836891321790  2.8052918445660895 13.4509226595000015   F   F   F
  0.0000000000000000  5.6105836891321790 13.4509226595000015   F   F   F
  2.8052918445660895  5.6105836891321790 13.4509226595000015   F   F   F
  5.6105836891321790  5.6105836891321790 13.4509226595000015   F   F   F
  1.3882879517657787  1.4037411049409874 15.4233379920412350   T   T   T
  4.2026465977844811  1.4007827227278531 15.4280739165980254   T   T   T
  7.0195510581189309  1.3986499233662855 15.4220134998659031   T   T   T
  1.4186756214718255  4.2307393766504857 15.4877918714662304   T   T   T
  4.2006558793061073  4.2302878429152937 15.4829714027900742   T   T   T
  6.9876674133224519  4.2239956793281888 15.4751920796870568   T   T   T
  1.4134953663549088  6.9929975861333169 15.4817068245330276   T   T   T
  4.1976578232401671  6.9859741355309373 15.4866625874599748   T   T   T
  6.9817518619574308  6.9874027597304220 15.4814051977146185   T   T   T
 -0.0131504334875078  0.0158154775413394 17.4029008395006919   T   T   T
  2.7928940887865932  0.0299859996817845 17.3835066415819455   T   T   T
  5.6023093135633797  0.0184867385019413 17.3852896254988281   T   T   T
 -0.0124468291193154  2.7799349158785160 17.4031514625587391   T   T   T
  2.7976522123546950  2.7777125754175080 17.3882097405255571   T   T   T
  5.6045373721729694  2.7763885099745802 17.3811904928649739   T   T   T
 -0.0206772265019077  5.6055998378994234 17.4352609587675325   T   T   T
  2.6956891452148612  5.6047374775689054 17.5814549435908205   T   T   T
  5.6812136467570813  5.6055678704018383 17.5857904205781779   T   T   T
  4.8335128511061862  5.5556717940936906 19.5034744426270521   T   T   T
  3.4203155534156235  5.6786906721796075 19.5061279807219528   T   T   T
  5.2107560043814773  6.3316242334443027 20.0625662160429350   T   T   T
  5.0693898022142454  4.6555264046862295 19.9429144966264325   T   T   T
