Ir  N  O  H 
 1.0000000000000000
     8.2153868178891649    0.0000000000000000    0.0000000000000000
     0.0000000000000000    8.2153868178891649    0.0000000000000000
     0.0000000000000000    0.0000000000000000   24.6819262150000007
 Ir  N   O   H  
  54   1   1   2
Selective dynamics
Cartesian
  1.3692311363148608  1.3692311363148608  7.5000000000000000   F   F   F
  4.1076934089445825  1.3692311363148608  7.5000000000000000   F   F   F
  6.8461556815743041  1.3692311363148608  7.5000000000000000   F   F   F
  1.3692311363148608  4.1076934089445825  7.5000000000000000   F   F   F
  4.1076934089445825  4.1076934089445825  7.5000000000000000   F   F   F
  6.8461556815743041  4.1076934089445825  7.5000000000000000   F   F   F
  1.3692311363148608  6.8461556815743041  7.5000000000000000   F   F   F
  4.1076934089445825  6.8461556815743041  7.5000000000000000   F   F   F
  6.8461556815743041  6.8461556815743041  7.5000000000000000   F   F   F
  0.0000000000000000  0.0000000000000000  9.4363852430000001   F   F   F
  2.7384622726297216  0.0000000000000000  9.4363852430000001   F   F   F
  5.4769245452594433  0.0000000000000000  9.4363852430000001   F   F   F
  0.0000000000000000  2.7384622726297216  9.4363852430000001   F   F   F
  2.7384622726297216  2.7384622726297216  9.4363852430000001   F   F   F
  5.4769245452594433  2.7384622726297216  9.4363852430000001   F   F   F
  0.0000000000000000  5.4769245452594433  9.4363852430000001   F   F   F
  2.7384622726297216  5.4769245452594433  9.4363852430000001   F   F   F
  5.4769245452594433  5.4769245452594433  9.4363852430000001   F   F   F
  1.3692311363148608  1.3692311363148608 11.3727704860000003   F   F   F
  4.1076934089445825  1.3692311363148608 11.3727704860000003   F   F   F
  6.8461556815743041  1.3692311363148608 11.3727704860000003   F   F   F
  1.3692311363148608  4.1076934089445825 11.3727704860000003   F   F   F
  4.1076934089445825  4.1076934089445825 11.3727704860000003   F   F   F
  6.8461556815743041  4.1076934089445825 11.3727704860000003   F   F   F
  1.3692311363148608  6.8461556815743041 11.3727704860000003   F   F   F
  4.1076934089445825  6.8461556815743041 11.3727704860000003   F   F   F
  6.8461556815743041  6.8461556815743041 11.3727704860000003   F   F   F
  0.0000000000000000  0.0000000000000000 13.3091557290000004   F   F   F
  2.7384622726297216  0.0000000000000000 13.3091557290000004   F   F   F
  5.4769245452594433  0.0000000000000000 13.3091557290000004   F   F   F
  0.0000000000000000  2.7384622726297216 13.3091557290000004   F   F   F
  2.7384622726297216  2.7384622726297216 13.3091557290000004   F   F   F
  5.4769245452594433  2.7384622726297216 13.3091557290000004   F   F   F
  0.0000000000000000  5.4769245452594433 13.3091557290000004   F   F   F
  2.7384622726297216  5.4769245452594433 13.3091557290000004   F   F   F
  5.4769245452594433  5.4769245452594433 13.3091557290000004   F   F   F
  1.3654201546143467  1.3705737691764288 15.2410718032437185   T   T   T
  4.1079161631335248  1.3696903397873024 15.2508896689982762   T   T   T
  6.8516819938066877  1.3700633244134592 15.2403084575908245   T   T   T
  1.3844306178262604  4.1300650122889611 15.2985563199902810   T   T   T
  4.1069785397640794  4.1127588530678842 15.2809090527465745   T   T   T
  6.8352750557762647  4.1237460154600702 15.2839188193013413   T   T   T
  1.3835778049646870  6.8241303074340411 15.2979615747980304   T   T   T
  4.1073456092673242  6.8421604245391219 15.2809044465490977   T   T   T
  6.8359107325329935  6.8323546139530835 15.2842070535431578   T   T   T
 -0.0006134120391331  0.0174022695120464 17.1136067870606468   T   T   T
  2.7336879249792099  0.0331908107586362 17.1065559485481771   T   T   T
  5.4832847370172448  0.0259553359134321 17.1024190052752694   T   T   T
 -0.0015003373093333  2.7223031503936501 17.1139565889695575   T   T   T
  2.7352214057880260  2.7054208951487428 17.1072162523333304   T   T   T
  5.4827454437582448  2.7146495379826834 17.1030258984892676   T   T   T
 -0.0077350621625752  5.4787501576035389 17.1342455939475862   T   T   T
  2.7016821721263660  5.4778298811617958 17.2178697930569555   T   T   T
  5.5157810660243847  5.4780996699408435 17.2155688657962429   T   T   T
  4.7349982306651599  5.4849558916742565 19.1971437169214205   T   T   T
  3.2991558124977400  5.4716061335134185 19.1769585037320596   T   T   T
  5.0181530066997295  6.3321255069578157 19.7058735999612935   T   T   T
  5.0349345431590429  4.6540998769581110 19.7231507832846944   T   T   T
