Cu  N  O  H 
 1.0000000000000000
     7.7122337857502483    0.0000000000000000    0.0000000000000000
     0.0000000000000000    7.7122337857502483    0.0000000000000000
     0.0000000000000000    0.0000000000000000   24.0889546800000005
 Cu  N   O   H  
  54   1   1   2
Selective dynamics
Cartesian
  1.2853722976250412  1.2853722976250412  7.5000000000000000   F   F   F
  3.8561168928751237  1.2853722976250412  7.5000000000000000   F   F   F
  6.4268614881252066  1.2853722976250412  7.5000000000000000   F   F   F
  1.2853722976250412  3.8561168928751237  7.5000000000000000   F   F   F
  3.8561168928751237  3.8561168928751237  7.5000000000000000   F   F   F
  6.4268614881252066  3.8561168928751237  7.5000000000000000   F   F   F
  1.2853722976250412  6.4268614881252066  7.5000000000000000   F   F   F
  3.8561168928751237  6.4268614881252066  7.5000000000000000   F   F   F
  6.4268614881252066  6.4268614881252066  7.5000000000000000   F   F   F
  0.0000000000000000  0.0000000000000000  9.3177909359999997   F   F   F
  2.5707445952500825  0.0000000000000000  9.3177909359999997   F   F   F
  5.1414891905001650  0.0000000000000000  9.3177909359999997   F   F   F
  0.0000000000000000  2.5707445952500825  9.3177909359999997   F   F   F
  2.5707445952500825  2.5707445952500825  9.3177909359999997   F   F   F
  5.1414891905001650  2.5707445952500825  9.3177909359999997   F   F   F
  0.0000000000000000  5.1414891905001650  9.3177909359999997   F   F   F
  2.5707445952500825  5.1414891905001650  9.3177909359999997   F   F   F
  5.1414891905001650  5.1414891905001650  9.3177909359999997   F   F   F
  1.2853722976250412  1.2853722976250412 11.1355818719999995   F   F   F
  3.8561168928751237  1.2853722976250412 11.1355818719999995   F   F   F
  6.4268614881252066  1.2853722976250412 11.1355818719999995   F   F   F
  1.2853722976250412  3.8561168928751237 11.1355818719999995   F   F   F
  3.8561168928751237  3.8561168928751237 11.1355818719999995   F   F   F
  6.4268614881252066  3.8561168928751237 11.1355818719999995   F   F   F
  1.2853722976250412  6.4268614881252066 11.1355818719999995   F   F   F
  3.8561168928751237  6.4268614881252066 11.1355818719999995   F   F   F
  6.4268614881252066  6.4268614881252066 11.1355818719999995   F   F   F
  0.0000000000000000  0.0000000000000000 12.9533728080000010   F   F   F
  2.5707445952500825  0.0000000000000000 12.9533728080000010   F   F   F
  5.1414891905001650  0.0000000000000000 12.9533728080000010   F   F   F
  0.0000000000000000  2.5707445952500825 12.9533728080000010   F   F   F
  2.5707445952500825  2.5707445952500825 12.9533728080000010   F   F   F
  5.1414891905001650  2.5707445952500825 12.9533728080000010   F   F   F
  0.0000000000000000  5.1414891905001650 12.9533728080000010   F   F   F
  2.5707445952500825  5.1414891905001650 12.9533728080000010   F   F   F
  5.1414891905001650  5.1414891905001650 12.9533728080000010   F   F   F
  1.3033914077684161  1.3057501517739238 14.8432433719921431   T   T   T
  3.8563617687241765  1.3030299098947886 14.8405922931244518   T   T   T
  6.4159049951105711  1.2867277125798124 14.8245176790334732   T   T   T
  1.2750695713491642  3.8774495235045801 14.8358626375161275   T   T   T
  3.8360912443845248  3.8417926541694634 14.8642635271684398   T   T   T
  6.3827771211188447  3.8319454750756901 14.8546226293548536   T   T   T
  1.3112397606163617  6.4674041631503663 14.8469222696616416   T   T   T
  3.8524143160854245  6.4472737836823955 14.8384754322006831   T   T   T
  6.4540315091580132  6.3940935885612440 14.7950318395386766   T   T   T
  0.0289547802278874 -0.0134811318003675 16.6186154391669589   T   T   T
  2.6362757132310413  0.0603930260970133 16.7704519831784253   T   T   T
  5.2309537828785340 -0.0850296193347178 16.5702173036874107   T   T   T
 -0.0525817617798729  2.5676749088243369 16.6150892071721721   T   T   T
  2.4525933724174882  2.7056605344187101 16.7116744720989701   T   T   T
  5.1537345236286507  2.5325936867972798 16.7907224015166179   T   T   T
 -0.0085848408835498  5.1383638943802756 16.6559032309469188   T   T   T
  2.5628109337108906  5.2334538815802825 16.6408184773435046   T   T   T
  5.1366271959443024  5.1260605552395111 16.6430297046149960   T   T   T
  4.2882444099630943  1.9113585380369884 18.6209105374153374   T   T   T
  2.9069166021239483  1.5371730035767237 18.3090435134346130   T   T   T
  4.2099661027136825  2.6622927134215053 19.3185228983316719   T   T   T
  4.7001095804500306  1.1055835517636943 19.1103838589026864   T   T   T
